 vasp.6.2.0 18Jan21 (build Feb 25 2021 07:51:20) complex
 executed on             LinuxPGI date 2022.05.18  06:58:43

 INCAR:
   ALGO = Fast
   PREC = Accurate
   EDIFF = 1E-6
   ENCUT = 700
   ISMEAR = -5
   IBRION = 2
   ISIF = 4
   LREAL = Auto
   LWAVE = False
   LCHARGE = False
   NSW = 300
   SIGMA = 0.05

 POTCAR:    PAW_PBE B 06Sep2000
 POTCAR:    PAW_PBE C 08Apr2002
 POTCAR:    PAW_PBE B 06Sep2000
   VRHFIN =B: s2p1

   TITEL  = PAW_PBE B 06Sep2000
   POMASS =   10.811; ZVAL   =    3.000    mass and valenz
   ENMAX  =  318.614; ENMIN  =  238.960 eV

 POTCAR:    PAW_PBE C 08Apr2002
   VRHFIN =C: s2p2

   TITEL  = PAW_PBE C 08Apr2002
   POMASS =   12.011; ZVAL   =    4.000    mass and valenz
   ENMAX  =  400.000; ENMIN  =  300.000 eV

 Optimization of the real space projectors (new method)

 maximal supplied QI-value         = 22.11
 optimisation between [QCUT,QGAM] = [ 13.49, 26.97] = [ 50.94,203.75] Ry
 Optimized for a Real-space Cutoff    1.14 Angstroem

   l    n(q)    QCUT    max X(q) W(low)/X(q) W(high)/X(q)  e(spline)
   0      9    13.487    53.033    0.17E-03    0.11E-03    0.20E-06
   0      9    13.487    34.740    0.17E-03    0.11E-03    0.20E-06
   1      9    13.487    30.949    0.61E-04    0.25E-04    0.11E-06
   1      9    13.487    19.518    0.55E-04    0.23E-04    0.10E-06
 Optimization of the real space projectors (new method)

 maximal supplied QI-value         = 25.13
 optimisation between [QCUT,QGAM] = [ 13.32, 26.89] = [ 49.69,202.52] Ry
 Optimized for a Real-space Cutoff    1.07 Angstroem

   l    n(q)    QCUT    max X(q) W(low)/X(q) W(high)/X(q)  e(spline)
   0      9    13.321   115.676    0.24E-03    0.18E-03    0.16E-06
   0      9    13.321    87.132    0.24E-03    0.18E-03    0.16E-06
   1      8    13.321     4.429    0.20E-03    0.27E-03    0.12E-06
   1      8    13.321     2.733    0.16E-03    0.21E-03    0.12E-06
  PAW_PBE B 06Sep2000                   :
  PAW_PBE C 08Apr2002                   :

 POSCAR: B96 C24
  positions in direct lattice
 exchange correlation table for  LEXCH =        8
   RHO(1)=    0.500       N(1)  =     2000
   RHO(2)=  100.500       N(2)  =     4000

 ion  position               nearest neighbor table
   1  0.158  0.404  0.404-  42 1.67 105 1.68  53 1.72  35 1.74  61 1.80  68 1.94
   2  0.158  0.404  0.904-  41 1.67 106 1.68  54 1.72  36 1.74  62 1.80  67 1.94
   3  0.158  0.904  0.404-  44 1.67 107 1.68  55 1.72  33 1.74  63 1.80  66 1.94
   4  0.158  0.904  0.904-  43 1.67 108 1.68  56 1.72  34 1.74  64 1.80  65 1.94
   5  0.658  0.404  0.404-  46 1.67 109 1.68  49 1.72  39 1.74  57 1.80  72 1.94
   6  0.658  0.404  0.904-  45 1.67 110 1.68  50 1.72  40 1.74  58 1.80  71 1.94
   7  0.658  0.904  0.404-  48 1.67 111 1.68  51 1.72  37 1.74  59 1.80  70 1.94
   8  0.658  0.904  0.904-  47 1.67 112 1.68  52 1.72  38 1.74  60 1.80  69 1.94
   9  0.402  0.402  0.157- 105 1.54  98 1.63  45 1.75  27 1.75  79 1.87  58 1.90
  10  0.402  0.402  0.657- 106 1.54  97 1.63  46 1.75  28 1.75  80 1.87  57 1.90
  11  0.402  0.902  0.157- 107 1.54 100 1.63  47 1.75  25 1.75  77 1.87  60 1.90
  12  0.402  0.902  0.657- 108 1.54  99 1.63  48 1.75  26 1.75  78 1.87  59 1.90
  13  0.902  0.402  0.157- 109 1.54 102 1.63  41 1.75  31 1.75  75 1.87  62 1.90
  14  0.902  0.402  0.657- 110 1.54 101 1.63  42 1.75  32 1.75  76 1.87  61 1.90
  15  0.902  0.902  0.157- 111 1.54 104 1.63  43 1.75  29 1.75  73 1.87  64 1.90
  16  0.902  0.902  0.657- 112 1.54 103 1.63  44 1.75  30 1.75  74 1.87  63 1.90
  17  0.402  0.157  0.402- 105 1.51  26 1.68  37 1.75  99 1.76  86 1.79  51 1.94
  18  0.402  0.157  0.902- 106 1.51  25 1.68  38 1.75 100 1.76  85 1.79  52 1.94
  19  0.402  0.657  0.402- 107 1.51  28 1.68  39 1.75  97 1.76  88 1.79  49 1.94
  20  0.402  0.657  0.902- 108 1.51  27 1.68  40 1.75  98 1.76  87 1.79  50 1.94
  21  0.902  0.157  0.402- 109 1.51  30 1.68  33 1.75 103 1.76  82 1.79  55 1.94
  22  0.902  0.157  0.902- 110 1.51  29 1.68  34 1.75 104 1.76  81 1.79  56 1.94
  23  0.902  0.657  0.402- 111 1.51  32 1.68  35 1.75 101 1.76  84 1.79  53 1.94
  24  0.902  0.657  0.902- 112 1.51  31 1.68  36 1.75 102 1.76  83 1.79  54 1.94
  25  0.341  0.097  0.097- 113 1.66  18 1.68  77 1.71  11 1.75  85 1.79 100 1.88
  26  0.341  0.097  0.597- 114 1.66  17 1.68  78 1.71  12 1.75  86 1.79  99 1.88
  27  0.341  0.597  0.097- 115 1.66  20 1.68  79 1.71   9 1.75  87 1.79  98 1.88
  28  0.341  0.597  0.597- 116 1.66  19 1.68  80 1.71  10 1.75  88 1.79  97 1.88
  29  0.841  0.097  0.097- 117 1.66  22 1.68  73 1.71  15 1.75  81 1.79 104 1.88
  30  0.841  0.097  0.597- 118 1.66  21 1.68  74 1.71  16 1.75  82 1.79 103 1.88
  31  0.841  0.597  0.097- 119 1.66  24 1.68  75 1.71  13 1.75  83 1.79 102 1.88
  32  0.841  0.597  0.597- 120 1.66  23 1.68  76 1.71  14 1.75  84 1.79 101 1.88
  33  0.099  0.097  0.344- 113 1.54  66 1.68   3 1.74  21 1.75  55 1.88  82 1.90
  34  0.099  0.097  0.844- 114 1.54  65 1.68   4 1.74  22 1.75  56 1.88  81 1.90
  35  0.099  0.597  0.344- 115 1.54  68 1.68   1 1.74  23 1.75  53 1.88  84 1.90
  36  0.099  0.597  0.844- 116 1.54  67 1.68   2 1.74  24 1.75  54 1.88  83 1.90
  37  0.599  0.097  0.344- 117 1.54  70 1.68   7 1.74  17 1.75  51 1.88  86 1.90
  38  0.599  0.097  0.844- 118 1.54  69 1.68   8 1.74  18 1.75  52 1.88  85 1.90
  39  0.599  0.597  0.344- 119 1.54  72 1.68   5 1.74  19 1.75  49 1.88  88 1.90
  40  0.599  0.597  0.844- 120 1.54  71 1.68   6 1.74  20 1.75  50 1.88  87 1.90
  41  0.099  0.344  0.097- 113 1.50   2 1.67  13 1.75  62 1.80  67 1.82  75 1.95  89 2.16
  42  0.099  0.344  0.597- 114 1.50   1 1.67  14 1.75  61 1.80  68 1.82  76 1.95  90 2.16
  43  0.099  0.844  0.097- 115 1.50   4 1.67  15 1.75  64 1.80  65 1.82  73 1.95  91 2.16
  44  0.099  0.844  0.597- 116 1.50   3 1.67  16 1.75  63 1.80  66 1.82  74 1.95  92 2.16
  45  0.599  0.344  0.097- 117 1.50   6 1.67   9 1.75  58 1.80  71 1.82  79 1.95  93 2.16
  46  0.599  0.344  0.597- 118 1.50   5 1.67  10 1.75  57 1.80  72 1.82  80 1.95  94 2.16
  47  0.599  0.844  0.097- 119 1.50   8 1.67  11 1.75  60 1.80  69 1.82  77 1.95  95 2.16
  48  0.599  0.844  0.597- 120 1.50   7 1.67  12 1.75  59 1.80  70 1.82  78 1.95  96 2.16
  49  0.494  0.497  0.337-  57 1.66   5 1.72  79 1.73  97 1.78  39 1.88  19 1.94
  50  0.494  0.497  0.837-  58 1.66   6 1.72  80 1.73  98 1.78  40 1.88  20 1.94
  51  0.494  0.997  0.337-  59 1.66   7 1.72  77 1.73  99 1.78  37 1.88  17 1.94
  52  0.494  0.997  0.837-  60 1.66   8 1.72  78 1.73 100 1.78  38 1.88  18 1.94
  53  0.994  0.497  0.337-  61 1.66   1 1.72  75 1.73 101 1.78  35 1.88  23 1.94
  54  0.994  0.497  0.837-  62 1.66   2 1.72  76 1.73 102 1.78  36 1.88  24 1.94
  55  0.994  0.997  0.337-  63 1.66   3 1.72  73 1.73 103 1.78  33 1.88  21 1.94
  56  0.994  0.997  0.837-  64 1.66   4 1.72  74 1.73 104 1.78  34 1.88  22 1.94
  57  0.494  0.337  0.497-  49 1.66  97 1.78   5 1.80  46 1.80  86 1.84  10 1.90
  58  0.494  0.337  0.997-  50 1.66  98 1.78   6 1.80  45 1.80  85 1.84   9 1.90
  59  0.494  0.837  0.497-  51 1.66  99 1.78   7 1.80  48 1.80  88 1.84  12 1.90
  60  0.494  0.837  0.997-  52 1.66 100 1.78   8 1.80  47 1.80  87 1.84  11 1.90
[...]
 106  0.306  0.309  0.809-  18 1.51  90 1.52  10 1.54   2 1.68
 107  0.306  0.809  0.309-  19 1.51  91 1.52  11 1.54   3 1.68
 108  0.306  0.809  0.809-  20 1.51  92 1.52  12 1.54   4 1.68
 109  0.806  0.309  0.309-  21 1.51  93 1.52  13 1.54   5 1.68
 110  0.806  0.309  0.809-  22 1.51  94 1.52  14 1.54   6 1.68
 111  0.806  0.809  0.309-  23 1.51  95 1.52  15 1.54   7 1.68
 112  0.806  0.809  0.809-  24 1.51  96 1.52  16 1.54   8 1.68
 113  0.191  0.189  0.189-  89 1.50  41 1.50  33 1.54  25 1.66
 114  0.191  0.189  0.689-  90 1.50  42 1.50  34 1.54  26 1.66
 115  0.191  0.689  0.189-  91 1.50  43 1.50  35 1.54  27 1.66
 116  0.191  0.689  0.689-  92 1.50  44 1.50  36 1.54  28 1.66
 117  0.691  0.189  0.189-  93 1.50  45 1.50  37 1.54  29 1.66
 118  0.691  0.189  0.689-  94 1.50  46 1.50  38 1.54  30 1.66
 119  0.691  0.689  0.189-  95 1.50  47 1.50  39 1.54  31 1.66
 120  0.691  0.689  0.689-  96 1.50  48 1.50  40 1.54  32 1.66

  LATTYP: Found a triclinic cell.
 ALAT       =    10.3210610116
 B/A-ratio  =     1.4469923134
 C/A-ratio  =     1.0844376838
 COS(alpha) =     0.0026371815
 COS(beta)  =     0.4621924416
 COS(gamma) =     0.7349132314

  Lattice vectors:

 A1 = (  -2.7281910000,  -7.9255380000,   6.0222190000)
 A2 = ( -11.9672780000,  -8.7301320000,   1.8995320000)
 A3 = (   6.5623400000,  -9.0664290000,  -0.0931580000)

Analysis of symmetry for initial positions (statically):
 Subroutine PRICEL returns following result:

[...]

   8 primitive cells build up your supercell.

 Routine SETGRP: Setting up the symmetry group for a
 triclinic supercell.

 Subroutine GETGRP returns: Found  1 space group operations
 (whereof  1 operations were pure point group operations)
 out of a pool of  2 trial point group operations.

The static configuration has the point symmetry C_1 .

Analysis of symmetry for dynamics (positions and initial velocities):
 Subroutine PRICEL returns following result:

  LATTYP: Found a triclinic cell.
 ALAT       =     5.1605305058
 B/A-ratio  =     1.4469923134
 C/A-ratio  =     1.0844376838
 COS(alpha) =     0.0026371815
 COS(beta)  =     0.4621924416
 COS(gamma) =     0.7349132314

  Lattice vectors:

 A1 = (  -1.3640955000,  -3.9627690000,   3.0111095000)
 A2 = (  -5.9836390000,  -4.3650660000,   0.9497660000)
 A3 = (   3.2811700000,  -4.5332145000,  -0.0465790000)

   8 primitive cells build up your supercell.

 Routine SETGRP: Setting up the symmetry group for a
 triclinic supercell.

 Subroutine GETGRP returns: Found  1 space group operations
 (whereof  1 operations were pure point group operations)
 out of a pool of  2 trial point group operations.

The dynamic configuration has the point symmetry C_1 .

 Subroutine INISYM returns: Found  1 space group operations
 (whereof  1 operations are pure point group operations),
 and found     8 'primitive' translations

                                     Primitive cell

  volume of cell :     107.4081

  direct lattice vectors                    reciprocal lattice vectors
    -1.364095500 -3.962769000  3.011109500     0.041978353  0.026419170  0.385889504
    -5.983639000 -4.365066000  0.949766000    -0.128803994 -0.091393737 -0.178629578
     3.281170000 -4.533214500 -0.046579000     0.087330397 -0.155684972 -0.165326628

  length of vectors
     5.160530506  7.467247975  5.596273749     0.389064087  0.238436176  0.243304958

  position of ions in fractional coordinates (direct lattice)
     0.738394000  0.069122000  0.384968000
     0.236820000  0.077620000  0.880884000
     0.727056000  0.077620000  0.880884000
     0.262722000  0.930608000  0.613340000
     0.765916000  0.921506000  0.118906000
     0.272166000  0.921506000  0.118906000
     0.330884000  0.342712000  0.331606000
     0.652086000  0.342712000  0.331606000
     0.359290000  0.646610000  0.988200000
     0.669908000  0.658816000  0.665766000
     0.346694000  0.658816000  0.665766000
     0.990044000  0.507974000  0.003964000
     0.664240000  0.331616000  0.008288000
     0.468798000  0.150076000  0.762252000
[...]
   -.189E+02 0.130E+02 0.836E+01   0.205E+02 -.138E+02 -.874E+01   -.162E+01 0.834E+00 0.376E+00   0.814E-04 0.179E-03 0.120E-03
   -.189E+02 0.130E+02 0.836E+01   0.205E+02 -.138E+02 -.874E+01   -.162E+01 0.834E+00 0.376E+00   0.814E-04 0.179E-03 0.119E-03
   -.189E+02 0.130E+02 0.836E+01   0.205E+02 -.138E+02 -.874E+01   -.162E+01 0.834E+00 0.376E+00   0.816E-04 0.179E-03 0.120E-03
   -.189E+02 0.130E+02 0.836E+01   0.205E+02 -.138E+02 -.874E+01   -.162E+01 0.834E+00 0.376E+00   0.815E-04 0.179E-03 0.120E-03
   -.189E+02 0.130E+02 0.836E+01   0.205E+02 -.138E+02 -.874E+01   -.162E+01 0.834E+00 0.376E+00   0.814E-04 0.179E-03 0.119E-03
   -.189E+02 0.130E+02 0.836E+01   0.205E+02 -.138E+02 -.874E+01   -.162E+01 0.834E+00 0.376E+00   0.818E-04 0.179E-03 0.119E-03
   -.189E+02 0.130E+02 0.836E+01   0.205E+02 -.138E+02 -.874E+01   -.162E+01 0.834E+00 0.376E+00   0.816E-04 0.179E-03 0.120E-03
   -.189E+02 0.130E+02 0.836E+01   0.205E+02 -.138E+02 -.874E+01   -.162E+01 0.834E+00 0.376E+00   0.810E-04 0.180E-03 0.119E-03
   0.135E+02 0.171E+02 -.231E+02   -.137E+02 -.183E+02 0.261E+02   0.230E+00 0.128E+01 -.296E+01   -.379E-04 0.114E-03 0.777E-05
   0.135E+02 0.171E+02 -.231E+02   -.137E+02 -.183E+02 0.261E+02   0.230E+00 0.128E+01 -.296E+01   -.380E-04 0.114E-03 0.722E-05
   0.135E+02 0.171E+02 -.231E+02   -.137E+02 -.183E+02 0.261E+02   0.230E+00 0.128E+01 -.296E+01   -.384E-04 0.114E-03 0.707E-05
   0.135E+02 0.171E+02 -.231E+02   -.137E+02 -.183E+02 0.261E+02   0.230E+00 0.128E+01 -.296E+01   -.381E-04 0.114E-03 0.761E-05
   0.135E+02 0.171E+02 -.231E+02   -.137E+02 -.183E+02 0.261E+02   0.230E+00 0.128E+01 -.296E+01   -.383E-04 0.114E-03 0.721E-05
   0.135E+02 0.171E+02 -.231E+02   -.137E+02 -.183E+02 0.261E+02   0.230E+00 0.128E+01 -.296E+01   -.382E-04 0.114E-03 0.741E-05
   0.135E+02 0.171E+02 -.231E+02   -.137E+02 -.183E+02 0.261E+02   0.230E+00 0.128E+01 -.296E+01   -.377E-04 0.114E-03 0.753E-05
   0.135E+02 0.171E+02 -.231E+02   -.137E+02 -.183E+02 0.261E+02   0.230E+00 0.128E+01 -.296E+01   -.378E-04 0.114E-03 0.706E-05
   -.115E+01 -.284E+02 0.141E+02   0.230E+01 0.314E+02 -.147E+02   -.115E+01 -.298E+01 0.532E+00   -.141E-03 -.223E-03 -.862E-04
   -.115E+01 -.284E+02 0.141E+02   0.230E+01 0.314E+02 -.147E+02   -.115E+01 -.298E+01 0.532E+00   -.141E-03 -.224E-03 -.865E-04
   -.115E+01 -.284E+02 0.141E+02   0.230E+01 0.314E+02 -.147E+02   -.115E+01 -.298E+01 0.532E+00   -.142E-03 -.224E-03 -.866E-04
   -.115E+01 -.284E+02 0.141E+02   0.230E+01 0.314E+02 -.147E+02   -.115E+01 -.298E+01 0.532E+00   -.141E-03 -.223E-03 -.866E-04
   -.115E+01 -.284E+02 0.141E+02   0.230E+01 0.314E+02 -.147E+02   -.115E+01 -.298E+01 0.532E+00   -.142E-03 -.224E-03 -.865E-04
   -.115E+01 -.284E+02 0.141E+02   0.230E+01 0.314E+02 -.147E+02   -.115E+01 -.298E+01 0.532E+00   -.141E-03 -.223E-03 -.865E-04
   -.115E+01 -.284E+02 0.141E+02   0.230E+01 0.314E+02 -.147E+02   -.115E+01 -.298E+01 0.532E+00   -.141E-03 -.224E-03 -.863E-04
   -.115E+01 -.284E+02 0.141E+02   0.230E+01 0.314E+02 -.147E+02   -.115E+01 -.298E+01 0.532E+00   -.141E-03 -.224E-03 -.866E-04
   0.128E+02 -.187E+02 -.178E+02   -.140E+02 0.206E+02 0.196E+02   0.120E+01 -.190E+01 -.184E+01   -.272E-04 -.329E-03 -.287E-03
   0.128E+02 -.187E+02 -.178E+02   -.140E+02 0.206E+02 0.196E+02   0.120E+01 -.190E+01 -.184E+01   -.275E-04 -.328E-03 -.287E-03
   0.128E+02 -.187E+02 -.178E+02   -.140E+02 0.206E+02 0.196E+02   0.120E+01 -.190E+01 -.184E+01   -.276E-04 -.328E-03 -.287E-03
   0.128E+02 -.187E+02 -.178E+02   -.140E+02 0.206E+02 0.196E+02   0.120E+01 -.190E+01 -.184E+01   -.274E-04 -.329E-03 -.287E-03
   0.128E+02 -.187E+02 -.178E+02   -.140E+02 0.206E+02 0.196E+02   0.120E+01 -.190E+01 -.184E+01   -.274E-04 -.329E-03 -.287E-03
   0.128E+02 -.187E+02 -.178E+02   -.140E+02 0.206E+02 0.196E+02   0.120E+01 -.190E+01 -.184E+01   -.272E-04 -.329E-03 -.287E-03
   0.128E+02 -.187E+02 -.178E+02   -.140E+02 0.206E+02 0.196E+02   0.120E+01 -.190E+01 -.184E+01   -.272E-04 -.329E-03 -.287E-03
   0.128E+02 -.187E+02 -.178E+02   -.140E+02 0.206E+02 0.196E+02   0.120E+01 -.190E+01 -.184E+01   -.273E-04 -.329E-03 -.287E-03
   -.161E+02 -.130E+02 0.100E+02   0.168E+02 0.132E+02 -.114E+02   -.740E+00 -.209E+00 0.139E+01   0.605E-04 -.925E-04 -.209E-03
   -.161E+02 -.130E+02 0.100E+02   0.168E+02 0.132E+02 -.114E+02   -.740E+00 -.209E+00 0.139E+01   0.604E-04 -.925E-04 -.210E-03
   -.161E+02 -.130E+02 0.100E+02   0.168E+02 0.132E+02 -.114E+02   -.740E+00 -.209E+00 0.139E+01   0.605E-04 -.921E-04 -.209E-03
   -.161E+02 -.130E+02 0.100E+02   0.168E+02 0.132E+02 -.114E+02   -.740E+00 -.209E+00 0.139E+01   0.601E-04 -.924E-04 -.210E-03
   -.161E+02 -.130E+02 0.100E+02   0.168E+02 0.132E+02 -.114E+02   -.740E+00 -.209E+00 0.139E+01   0.606E-04 -.921E-04 -.209E-03
   -.161E+02 -.130E+02 0.100E+02   0.168E+02 0.132E+02 -.114E+02   -.740E+00 -.209E+00 0.139E+01   0.597E-04 -.924E-04 -.209E-03
   -.161E+02 -.130E+02 0.100E+02   0.168E+02 0.132E+02 -.114E+02   -.740E+00 -.209E+00 0.139E+01   0.601E-04 -.928E-04 -.209E-03
   -.161E+02 -.130E+02 0.100E+02   0.168E+02 0.132E+02 -.114E+02   -.740E+00 -.209E+00 0.139E+01   0.604E-04 -.923E-04 -.210E-03
   -.647E+01 0.167E+02 -.143E+02   0.663E+01 -.183E+02 0.144E+02   -.161E+00 0.158E+01 -.719E-01   0.212E-04 -.447E-04 0.609E-04
   -.647E+01 0.167E+02 -.143E+02   0.663E+01 -.183E+02 0.144E+02   -.161E+00 0.158E+01 -.719E-01   0.214E-04 -.449E-04 0.610E-04
   -.647E+01 0.167E+02 -.143E+02   0.663E+01 -.183E+02 0.144E+02   -.161E+00 0.158E+01 -.719E-01   0.216E-04 -.448E-04 0.611E-04
   -.647E+01 0.167E+02 -.143E+02   0.663E+01 -.183E+02 0.144E+02   -.161E+00 0.158E+01 -.719E-01   0.212E-04 -.448E-04 0.609E-04
   -.647E+01 0.167E+02 -.143E+02   0.663E+01 -.183E+02 0.144E+02   -.161E+00 0.158E+01 -.719E-01   0.216E-04 -.449E-04 0.614E-04
   -.647E+01 0.167E+02 -.143E+02   0.663E+01 -.183E+02 0.144E+02   -.161E+00 0.158E+01 -.719E-01   0.212E-04 -.446E-04 0.609E-04
   -.647E+01 0.167E+02 -.143E+02   0.663E+01 -.183E+02 0.144E+02   -.161E+00 0.158E+01 -.719E-01   0.209E-04 -.445E-04 0.605E-04
   -.647E+01 0.167E+02 -.143E+02   0.663E+01 -.183E+02 0.144E+02   -.161E+00 0.158E+01 -.719E-01   0.214E-04 -.448E-04 0.610E-04
   -.141E+01 0.988E+01 0.535E+02   0.300E+01 -.106E+02 -.589E+02   -.158E+01 0.674E+00 0.546E+01   0.681E-04 0.253E-03 0.170E-03
   -.141E+01 0.988E+01 0.535E+02   0.300E+01 -.106E+02 -.589E+02   -.158E+01 0.674E+00 0.546E+01   0.689E-04 0.254E-03 0.170E-03
   -.141E+01 0.988E+01 0.535E+02   0.300E+01 -.106E+02 -.589E+02   -.158E+01 0.674E+00 0.546E+01   0.685E-04 0.254E-03 0.171E-03
   -.141E+01 0.988E+01 0.535E+02   0.300E+01 -.106E+02 -.589E+02   -.158E+01 0.674E+00 0.546E+01   0.681E-04 0.254E-03 0.171E-03
   -.141E+01 0.988E+01 0.535E+02   0.300E+01 -.106E+02 -.589E+02   -.158E+01 0.674E+00 0.546E+01   0.683E-04 0.254E-03 0.171E-03
   -.141E+01 0.988E+01 0.535E+02   0.300E+01 -.106E+02 -.589E+02   -.158E+01 0.674E+00 0.546E+01   0.684E-04 0.254E-03 0.170E-03
   -.141E+01 0.988E+01 0.535E+02   0.300E+01 -.106E+02 -.589E+02   -.158E+01 0.674E+00 0.546E+01   0.682E-04 0.254E-03 0.171E-03
   -.141E+01 0.988E+01 0.535E+02   0.300E+01 -.106E+02 -.589E+02   -.158E+01 0.674E+00 0.546E+01   0.689E-04 0.254E-03 0.171E-03
   0.111E+02 0.487E+02 0.217E+02   -.111E+02 -.542E+02 -.232E+02   -.128E-01 0.553E+01 0.148E+01   -.261E-04 -.164E-03 0.994E-04
   0.111E+02 0.487E+02 0.217E+02   -.111E+02 -.542E+02 -.232E+02   -.128E-01 0.553E+01 0.148E+01   -.257E-04 -.164E-03 0.994E-04
   0.111E+02 0.487E+02 0.217E+02   -.111E+02 -.542E+02 -.232E+02   -.128E-01 0.553E+01 0.148E+01   -.258E-04 -.164E-03 0.997E-04
   0.111E+02 0.487E+02 0.217E+02   -.111E+02 -.542E+02 -.232E+02   -.128E-01 0.553E+01 0.148E+01   -.263E-04 -.163E-03 0.994E-04
[...]
   -.141E+02 -.142E+02 -.229E+02   0.159E+02 0.171E+02 0.271E+02   -.178E+01 -.286E+01 -.419E+01   0.542E-04 0.121E-03 -.433E-04
   -.141E+02 -.142E+02 -.229E+02   0.159E+02 0.171E+02 0.271E+02   -.178E+01 -.286E+01 -.419E+01   0.541E-04 0.121E-03 -.432E-04
   -.141E+02 -.142E+02 -.229E+02   0.159E+02 0.171E+02 0.271E+02   -.178E+01 -.286E+01 -.419E+01   0.542E-04 0.121E-03 -.437E-04
   -.141E+02 -.142E+02 -.229E+02   0.159E+02 0.171E+02 0.271E+02   -.178E+01 -.286E+01 -.419E+01   0.543E-04 0.121E-03 -.434E-04
   -.141E+02 -.142E+02 -.229E+02   0.159E+02 0.171E+02 0.271E+02   -.178E+01 -.286E+01 -.419E+01   0.546E-04 0.121E-03 -.430E-04
   -.141E+02 -.142E+02 -.229E+02   0.159E+02 0.171E+02 0.271E+02   -.178E+01 -.286E+01 -.419E+01   0.547E-04 0.121E-03 -.438E-04
   0.194E+02 0.142E+02 0.250E+02   -.217E+02 -.175E+02 -.298E+02   0.233E+01 0.324E+01 0.485E+01   -.989E-03 0.134E-03 -.187E-03
   0.194E+02 0.142E+02 0.250E+02   -.217E+02 -.175E+02 -.298E+02   0.233E+01 0.324E+01 0.485E+01   -.989E-03 0.134E-03 -.188E-03
   0.194E+02 0.142E+02 0.250E+02   -.217E+02 -.175E+02 -.298E+02   0.233E+01 0.324E+01 0.485E+01   -.990E-03 0.134E-03 -.187E-03
   0.194E+02 0.142E+02 0.250E+02   -.217E+02 -.175E+02 -.298E+02   0.233E+01 0.324E+01 0.485E+01   -.990E-03 0.134E-03 -.188E-03
   0.194E+02 0.142E+02 0.250E+02   -.217E+02 -.175E+02 -.298E+02   0.233E+01 0.324E+01 0.485E+01   -.990E-03 0.134E-03 -.187E-03
   0.194E+02 0.142E+02 0.250E+02   -.217E+02 -.175E+02 -.298E+02   0.233E+01 0.324E+01 0.485E+01   -.989E-03 0.135E-03 -.188E-03
   0.194E+02 0.142E+02 0.250E+02   -.217E+02 -.175E+02 -.298E+02   0.233E+01 0.324E+01 0.485E+01   -.990E-03 0.134E-03 -.188E-03
   0.194E+02 0.142E+02 0.250E+02   -.217E+02 -.175E+02 -.298E+02   0.233E+01 0.324E+01 0.485E+01   -.990E-03 0.134E-03 -.188E-03
   -.565E+01 -.994E+01 -.142E+02   0.924E-13 -.590E-12 -.377E-12   0.567E+01 0.995E+01 0.142E+02   -.320E-02 0.234E-02 0.944E-04

 POSITION                                       TOTAL-FORCE (eV/Angst)
      2.47509      4.29737      6.21515        -0.000571      0.000366     -0.001090
      2.43569      4.81988     11.37028        -0.000571      0.000366     -0.001090
      3.78804      9.00496      7.93930        -0.000571      0.000366     -0.001090
      3.74864      9.52747     13.09444        -0.000571      0.000366     -0.001090
      7.05665      4.50929      8.27821        -0.000571      0.000366     -0.001090
      7.01724      5.03181     13.43334        -0.000571      0.000366     -0.001090
      8.36959      9.21688     10.00237        -0.000571      0.000366     -0.001090
      8.33019      9.73940     15.15750        -0.000571      0.000366     -0.001090
      4.71858      4.11294      4.66866        -0.000206      0.000692     -0.000081
      4.67917      4.63545      9.82379        -0.000206      0.000692     -0.000081
      6.03153      8.82053      6.39281        -0.000206      0.000692     -0.000081
      5.99212      9.34304     11.54795        -0.000206      0.000692     -0.000081
      9.30013      4.32486      6.73172        -0.000206      0.000692     -0.000081
      9.26072      4.84738     11.88686        -0.000206      0.000692     -0.000081
     10.61308      9.03245      8.45588        -0.000206      0.000692     -0.000081
     10.57367      9.55497     13.61101        -0.000206      0.000692     -0.000081
      4.06044      2.07711      6.33754         0.000978      0.000212      0.000801
      4.02103      2.59962     11.49268         0.000978      0.000212      0.000801
      5.37339      6.78470      8.06170         0.000978      0.000212      0.000801
      5.33398      7.30721     13.21683         0.000978      0.000212      0.000801
      8.64199      2.28903      8.40061         0.000978      0.000212      0.000801
      8.60259      2.81155     13.55574         0.000978      0.000212      0.000801
      9.95494      6.99662     10.12476         0.000978      0.000212      0.000801
      9.91553      7.51914     15.27990         0.000978      0.000212      0.000801
      3.38019      1.14754      2.73085         0.000396     -0.001200     -0.000422
      3.34078      1.67006      7.88599         0.000396     -0.001200     -0.000422
      4.69314      5.85513      4.45501         0.000396     -0.001200     -0.000422
      4.65373      6.37765      9.61014         0.000396     -0.001200     -0.000422
      7.96174      1.35947      4.79392         0.000396     -0.001200     -0.000422
      7.92233      1.88198      9.94905         0.000396     -0.001200     -0.000422
      9.27469      6.06706      6.51807         0.000396     -0.001200     -0.000422
      9.23528      6.58957     11.67321         0.000396     -0.001200     -0.000422
      1.13882      1.32165      4.28715         0.000499     -0.000053      0.000177
      1.09942      1.84417      9.44228         0.000499     -0.000053      0.000177
      2.45177      6.02924      6.01130         0.000499     -0.000053      0.000177
      2.41237      6.55176     11.16644         0.000499     -0.000053      0.000177
      5.72037      1.53358      6.35021         0.000499     -0.000053      0.000177
      5.68097      2.05609     11.50535         0.000499     -0.000053      0.000177
      7.03332      6.24117      8.07437         0.000499     -0.000053      0.000177
      6.99392      6.76368     13.22950         0.000499     -0.000053      0.000177
      1.80338      3.37744      2.60198        -0.000211      0.000149     -0.000005
      1.76397      3.89995      7.75711        -0.000211      0.000149     -0.000005
      3.11633      8.08503      4.32613        -0.000211      0.000149     -0.000005
      3.07692      8.60754      9.48127        -0.000211      0.000149     -0.000005
      6.38493      3.58936      4.66504        -0.000211      0.000149     -0.000005
      6.34552      4.11188      9.82018        -0.000211      0.000149     -0.000005
      7.69788      8.29695      6.38920        -0.000211      0.000149     -0.000005
      7.65847      8.81947     11.54433        -0.000211      0.000149     -0.000005
      5.80762      5.25233      7.23254        -0.000473      0.000123     -0.000257
      5.76822      5.77484     12.38767        -0.000473      0.000123     -0.000257
      4.49467      0.54474      5.50838        -0.000473      0.000123     -0.000257
      4.45527      1.06725     10.66351        -0.000473      0.000123     -0.000257
     10.38917      5.46425      9.29560        -0.000473      0.000123     -0.000257
     10.34977      5.98676     14.45073        -0.000473      0.000123     -0.000257
      9.07623      0.75666      7.57144        -0.000473      0.000123     -0.000257
      9.03682      1.27917     12.72658        -0.000473      0.000123     -0.000257
      5.37237      3.90466      8.33740        -0.000676     -0.000572     -0.001284
      5.41178      3.38214      3.18227        -0.000676     -0.000572     -0.001284
      6.68532      8.61225     10.06156        -0.000676     -0.000572     -0.001284
      6.72473      8.08974      4.90642        -0.000676     -0.000572     -0.001284
[...]
      3.53348      3.89354     10.67287         0.000534      0.000654      0.000746
      4.88584      8.07862      7.24190         0.000534      0.000654      0.000746
      4.84643      8.60113     12.39703         0.000534      0.000654      0.000746
      8.15444      3.58295      7.58080         0.000534      0.000654      0.000746
      8.11503      4.10546     12.73594         0.000534      0.000654      0.000746
      9.46739      8.29054      9.30496         0.000534      0.000654      0.000746
      9.42798      8.81305     14.46010         0.000534      0.000654      0.000746
      2.23874      2.03426      3.36273        -0.000117      0.000894      0.001370
      2.19933      2.55677      8.51787        -0.000117      0.000894      0.001370
      3.55169      6.74185      5.08689        -0.000117      0.000894      0.001370
      3.51228      7.26436     10.24202        -0.000117      0.000894      0.001370
      6.82029      2.24618      5.42580        -0.000117      0.000894      0.001370
      6.78088      2.76869     10.58093        -0.000117      0.000894      0.001370
      8.13324      6.95377      7.14995        -0.000117      0.000894      0.001370
      8.09383      7.47628     12.30509        -0.000117      0.000894      0.001370
    total drift:                                0.014363      0.007606     -0.006591

  FREE ENERGIE OF THE ION-ELECTRON SYSTEM (eV)
  free  energy   TOTEN  =      -877.21582351 eV

  energy  without entropy=     -877.21582351  energy(sigma->0) =     -877.21582351

 d Force = 0.1682492E-05[ 0.616E-07, 0.330E-05]  d Energy = 0.1629947E-05 0.525E-07
 d Force = 0.1873703E-01[ 0.187E-01, 0.187E-01]  d Ewald  = 0.1891236E-01-0.175E-03

 reached required accuracy - stopping structural energy minimisation
 BZINTS: Fermi energy:    8.122125;  384.000000 electrons
         Band energy:-0.348030E+03;  BLOECHL correction:   -0.000000