 vasp.6.2.0 18Jan21 (build Feb 25 2021 07:51:20) complex
 executed on             LinuxPGI date 2022.05.18  12:24:44

 INCAR:
   ALGO = Fast
   PREC = Accurate
   EDIFF = 1E-6
   ENCUT = 700
   ISMEAR = -5
   IBRION = 2
   ISIF = 4
   LREAL = Auto
   LWAVE = False
   LCHARGE = False
   NSW = 300
   SIGMA = 0.05

 POTCAR:    PAW_PBE B 06Sep2000
 POTCAR:    PAW_PBE C 08Apr2002
 POTCAR:    PAW_PBE B 06Sep2000
   VRHFIN =B: s2p1

   TITEL  = PAW_PBE B 06Sep2000
   POMASS =   10.811; ZVAL   =    3.000    mass and valenz
   ENMAX  =  318.614; ENMIN  =  238.960 eV

 POTCAR:    PAW_PBE C 08Apr2002
   VRHFIN =C: s2p2

   TITEL  = PAW_PBE C 08Apr2002
   POMASS =   12.011; ZVAL   =    4.000    mass and valenz
   ENMAX  =  400.000; ENMIN  =  300.000 eV

 Optimization of the real space projectors (new method)

 maximal supplied QI-value         = 22.11
 optimisation between [QCUT,QGAM] = [ 13.49, 26.97] = [ 50.94,203.75] Ry
 Optimized for a Real-space Cutoff    1.14 Angstroem

   l    n(q)    QCUT    max X(q) W(low)/X(q) W(high)/X(q)  e(spline)
   0      9    13.487    53.033    0.17E-03    0.11E-03    0.20E-06
   0      9    13.487    34.740    0.17E-03    0.11E-03    0.20E-06
   1      9    13.487    30.949    0.61E-04    0.25E-04    0.11E-06
   1      9    13.487    19.518    0.55E-04    0.23E-04    0.10E-06
 Optimization of the real space projectors (new method)

 maximal supplied QI-value         = 25.13
 optimisation between [QCUT,QGAM] = [ 13.32, 26.89] = [ 49.69,202.52] Ry
 Optimized for a Real-space Cutoff    1.07 Angstroem

   l    n(q)    QCUT    max X(q) W(low)/X(q) W(high)/X(q)  e(spline)
   0      9    13.321   115.676    0.24E-03    0.18E-03    0.16E-06
   0      9    13.321    87.132    0.24E-03    0.18E-03    0.16E-06
   1      8    13.321     4.429    0.20E-03    0.27E-03    0.12E-06
   1      8    13.321     2.733    0.16E-03    0.21E-03    0.12E-06
  PAW_PBE B 06Sep2000                   :
  PAW_PBE C 08Apr2002                   :

 POSCAR: B96 C16
  positions in direct lattice
 exchange correlation table for  LEXCH =        8
   RHO(1)=    0.500       N(1)  =     2000
   RHO(2)=  100.500       N(2)  =     4000

 ion  position               nearest neighbor table
   1  0.160  0.401  0.401-  97 1.60  42 1.70  59 1.71  35 1.78  66 1.80  76 1.91
   2  0.160  0.401  0.901-  98 1.60  41 1.70  60 1.71  36 1.78  65 1.80  75 1.91
   3  0.160  0.901  0.401-  99 1.60  44 1.70  57 1.71  33 1.78  68 1.80  74 1.91
   4  0.160  0.901  0.901- 100 1.60  43 1.70  58 1.71  34 1.78  67 1.80  73 1.91
   5  0.660  0.401  0.401- 101 1.60  46 1.70  63 1.71  39 1.78  70 1.80  80 1.91
   6  0.660  0.401  0.901- 102 1.60  45 1.70  64 1.71  40 1.78  69 1.80  79 1.91
   7  0.660  0.901  0.401- 103 1.60  48 1.70  61 1.71  37 1.78  72 1.80  78 1.91
   8  0.660  0.901  0.901- 104 1.60  47 1.70  62 1.71  38 1.78  71 1.80  77 1.91
   9  0.401  0.401  0.160-  97 1.47  51 1.66  27 1.78  45 1.78  87 1.86  69 1.89
  10  0.401  0.401  0.660-  98 1.47  52 1.66  28 1.78  46 1.78  88 1.86  70 1.89
  11  0.401  0.901  0.160-  99 1.47  49 1.66  25 1.78  47 1.78  85 1.86  71 1.89
  12  0.401  0.901  0.660- 100 1.47  50 1.66  26 1.78  48 1.78  86 1.86  72 1.89
  13  0.901  0.401  0.160- 101 1.47  55 1.66  31 1.78  41 1.78  83 1.86  65 1.89
  14  0.901  0.401  0.660- 102 1.47  56 1.66  32 1.78  42 1.78  84 1.86  66 1.89
  15  0.901  0.901  0.160- 103 1.47  53 1.66  29 1.78  43 1.78  81 1.86  67 1.89
  16  0.901  0.901  0.660- 104 1.47  54 1.66  30 1.78  44 1.78  82 1.86  68 1.89
  17  0.401  0.160  0.401-  97 1.45  26 1.70  37 1.78  94 1.79  50 1.79  61 1.94
  18  0.401  0.160  0.901-  98 1.45  25 1.70  38 1.78  93 1.79  49 1.79  62 1.94
  19  0.401  0.660  0.401-  99 1.45  28 1.70  39 1.78  96 1.79  52 1.79  63 1.94
  20  0.401  0.660  0.901- 100 1.45  27 1.70  40 1.78  95 1.79  51 1.79  64 1.94
  21  0.901  0.160  0.401- 101 1.45  30 1.70  33 1.78  90 1.79  54 1.79  57 1.94
  22  0.901  0.160  0.901- 102 1.45  29 1.70  34 1.78  89 1.79  53 1.79  58 1.94
  23  0.901  0.660  0.401- 103 1.45  32 1.70  35 1.78  92 1.79  56 1.79  59 1.94
  24  0.901  0.660  0.901- 104 1.45  31 1.70  36 1.78  91 1.79  55 1.79  60 1.94
  25  0.340  0.099  0.099- 105 1.60  18 1.70  85 1.71  11 1.78  93 1.80  49 1.91
  26  0.340  0.099  0.599- 106 1.60  17 1.70  86 1.71  12 1.78  94 1.80  50 1.91
  27  0.340  0.599  0.099- 107 1.60  20 1.70  87 1.71   9 1.78  95 1.80  51 1.91
  28  0.340  0.599  0.599- 108 1.60  19 1.70  88 1.71  10 1.78  96 1.80  52 1.91
  29  0.840  0.099  0.099- 109 1.60  22 1.70  81 1.71  15 1.78  89 1.80  53 1.91
  30  0.840  0.099  0.599- 110 1.60  21 1.70  82 1.71  16 1.78  90 1.80  54 1.91
  31  0.840  0.599  0.099- 111 1.60  24 1.70  83 1.71  13 1.78  91 1.80  55 1.91
  32  0.840  0.599  0.599- 112 1.60  23 1.70  84 1.71  14 1.78  92 1.80  56 1.91
  33  0.099  0.099  0.340- 105 1.47  74 1.66   3 1.78  21 1.78  57 1.86  90 1.89
  34  0.099  0.099  0.840- 106 1.47  73 1.66   4 1.78  22 1.78  58 1.86  89 1.89
  35  0.099  0.599  0.340- 107 1.47  76 1.66   1 1.78  23 1.78  59 1.86  92 1.89
  36  0.099  0.599  0.840- 108 1.47  75 1.66   2 1.78  24 1.78  60 1.86  91 1.89
  37  0.599  0.099  0.340- 109 1.47  78 1.66   7 1.78  17 1.78  61 1.86  94 1.89
  38  0.599  0.099  0.840- 110 1.47  77 1.66   8 1.78  18 1.78  62 1.86  93 1.89
  39  0.599  0.599  0.340- 111 1.47  80 1.66   5 1.78  19 1.78  63 1.86  96 1.89
  40  0.599  0.599  0.840- 112 1.47  79 1.66   6 1.78  20 1.78  64 1.86  95 1.89
  41  0.099  0.340  0.099- 105 1.45   2 1.70  13 1.78  65 1.79  75 1.79  83 1.94
  42  0.099  0.340  0.599- 106 1.45   1 1.70  14 1.78  66 1.79  76 1.79  84 1.94
  43  0.099  0.840  0.099- 107 1.45   4 1.70  15 1.78  67 1.79  73 1.79  81 1.94
  44  0.099  0.840  0.599- 108 1.45   3 1.70  16 1.78  68 1.79  74 1.79  82 1.94
  45  0.599  0.340  0.099- 109 1.45   6 1.70   9 1.78  69 1.79  79 1.79  87 1.94
  46  0.599  0.340  0.599- 110 1.45   5 1.70  10 1.78  70 1.79  80 1.79  88 1.94
  47  0.599  0.840  0.099- 111 1.45   8 1.70  11 1.78  71 1.79  77 1.79  85 1.94
  48  0.599  0.840  0.599- 112 1.45   7 1.70  12 1.78  72 1.79  78 1.79  86 1.94
  49  0.332  0.000  0.000-  11 1.66  73 1.71  18 1.79  62 1.87  71 1.87  25 1.91
  50  0.332  0.000  0.500-  12 1.66  74 1.71  17 1.79  61 1.87  72 1.87  26 1.91
  51  0.332  0.500  0.000-   9 1.66  75 1.71  20 1.79  64 1.87  69 1.87  27 1.91
  52  0.332  0.500  0.500-  10 1.66  76 1.71  19 1.79  63 1.87  70 1.87  28 1.91
  53  0.832  0.000  0.000-  15 1.66  77 1.71  22 1.79  58 1.87  67 1.87  29 1.91
  54  0.832  0.000  0.500-  16 1.66  78 1.71  21 1.79  57 1.87  68 1.87  30 1.91
  55  0.832  0.500  0.000-  13 1.66  79 1.71  24 1.79  60 1.87  65 1.87  31 1.91
  56  0.832  0.500  0.500-  14 1.66  80 1.71  23 1.79  59 1.87  66 1.87  32 1.91
  57  0.000  0.000  0.332-  81 1.71  68 1.71   3 1.71  33 1.86  54 1.87  21 1.94
  58  0.000  0.000  0.832-  82 1.71  67 1.71   4 1.71  34 1.86  53 1.87  22 1.94
  59  0.000  0.500  0.332-  83 1.71  66 1.71   1 1.71  35 1.86  56 1.87  23 1.94
  60  0.000  0.500  0.832-  84 1.71  65 1.71   2 1.71  36 1.86  55 1.87  24 1.94
[...]
  98  0.315  0.315  0.815-  18 1.45  10 1.47   2 1.60
  99  0.315  0.815  0.315-  19 1.45  11 1.47   3 1.60
 100  0.315  0.815  0.815-  20 1.45  12 1.47   4 1.60
 101  0.815  0.315  0.315-  21 1.45  13 1.47   5 1.60
 102  0.815  0.315  0.815-  22 1.45  14 1.47   6 1.60
 103  0.815  0.815  0.315-  23 1.45  15 1.47   7 1.60
 104  0.815  0.815  0.815-  24 1.45  16 1.47   8 1.60
 105  0.185  0.185  0.185-  41 1.45  33 1.47  25 1.60
 106  0.185  0.185  0.685-  42 1.45  34 1.47  26 1.60
 107  0.185  0.685  0.185-  43 1.45  35 1.47  27 1.60
 108  0.185  0.685  0.685-  44 1.45  36 1.47  28 1.60
 109  0.685  0.185  0.185-  45 1.45  37 1.47  29 1.60
 110  0.685  0.185  0.685-  46 1.45  38 1.47  30 1.60
 111  0.685  0.685  0.185-  47 1.45  39 1.47  31 1.60
 112  0.685  0.685  0.685-  48 1.45  40 1.47  32 1.60

  LATTYP: Found a triclinic cell.
 ALAT       =    11.0155077932
 B/A-ratio  =     1.3628692978
 C/A-ratio  =     0.9419211459
 COS(alpha) =     0.0031498524
 COS(beta)  =     0.5459580160
 COS(gamma) =     0.6744244167

  Lattice vectors:

 A1 = (  -2.7959790000,  -9.7762410000,  -4.2366290000)
 A2 = ( -12.1232000000,  -8.6863420000,   1.7194670000)
 A3 = (  -0.0977430000,  -1.9377250000, -10.1927250000)

Analysis of symmetry for initial positions (statically):
 Subroutine PRICEL returns following result:

[...]

   8 primitive cells build up your supercell.

 Routine SETGRP: Setting up the symmetry group for a
 triclinic supercell.

 Subroutine GETGRP returns: Found  2 space group operations
 (whereof  2 operations were pure point group operations)
 out of a pool of  2 trial point group operations.

The static configuration has the point symmetry S_2 .

Analysis of symmetry for dynamics (positions and initial velocities):
 Subroutine PRICEL returns following result:

  LATTYP: Found a triclinic cell.
 ALAT       =     5.5077538966
 B/A-ratio  =     1.3628692978
 C/A-ratio  =     0.9419211459
 COS(alpha) =     0.0031498524
 COS(beta)  =     0.5459580160
 COS(gamma) =     0.6744244167

  Lattice vectors:

 A1 = (  -1.3979895000,  -4.8881205000,  -2.1183145000)
 A2 = (  -6.0616000000,  -4.3431710000,   0.8597335000)
 A3 = (  -0.0488715000,  -0.9688625000,  -5.0963625000)

   8 primitive cells build up your supercell.

 Routine SETGRP: Setting up the symmetry group for a
 triclinic supercell.

 Subroutine GETGRP returns: Found  2 space group operations
 (whereof  2 operations were pure point group operations)
 out of a pool of  2 trial point group operations.

The dynamic configuration has the point symmetry S_2 .

 Subroutine INISYM returns: Found  2 space group operations
 (whereof  2 operations are pure point group operations),
 and found     8 'primitive' translations

                                     Primitive cell

  volume of cell :     107.1107

  direct lattice vectors                    reciprocal lattice vectors
    -1.397989500 -4.888120500 -2.118314500     0.214426141 -0.288805161  0.052848117
    -6.061600000 -4.343171000  0.859733500    -0.213417289  0.065550268 -0.010415109
    -0.048871500 -0.968862500 -5.096362500    -0.125129246  0.131100549 -0.219941802

  length of vectors
     5.507753897  7.506348685  5.187869861     0.363565557  0.223500003  0.284989611

  position of ions in fractional coordinates (direct lattice)
     0.519760000  0.679210000  0.878180000
     1.000000000  0.198970000  0.878180000
     0.480240000  0.198970000  0.397940000
     0.480240000  0.320790000  0.121820000
    -0.000000000  0.801030000  0.121820000
     0.519760000  0.801030000  0.602060000
     0.664356000  0.335414000  0.335184000
    -0.000000000  0.999770000  0.335184000
     0.335644000  0.999770000  0.999540000
     0.335644000  0.664586000  0.664816000
     1.000000000  0.000230000  0.664816000
     0.664356000  0.000230000  0.000460000
     1.000000000  0.369206000  0.738412000
     1.000000000  0.630794000  0.261588000

  ion indices of the primitive-cell ions
   primitive index   ion index
                 1           1
                 2           9
                 3          17
                 4          28
[...]
   -.847E+01 0.180E+02 0.186E+02   0.104E+02 -.195E+02 -.196E+02   -.195E+01 0.149E+01 0.105E+01   0.138E-05 -.168E-05 -.182E-05
   -.847E+01 0.180E+02 0.186E+02   0.104E+02 -.195E+02 -.196E+02   -.195E+01 0.149E+01 0.105E+01   0.138E-05 -.168E-05 -.182E-05
   0.218E+02 0.162E+02 -.101E+01   -.236E+02 -.174E+02 0.243E+01   0.188E+01 0.127E+01 -.143E+01   0.680E-07 -.155E-05 0.229E-05
   0.218E+02 0.162E+02 -.101E+01   -.236E+02 -.174E+02 0.243E+01   0.188E+01 0.127E+01 -.143E+01   0.680E-07 -.155E-05 0.229E-05
   0.218E+02 0.162E+02 -.101E+01   -.236E+02 -.174E+02 0.243E+01   0.188E+01 0.127E+01 -.143E+01   0.680E-07 -.155E-05 0.229E-05
   0.218E+02 0.162E+02 -.101E+01   -.236E+02 -.174E+02 0.243E+01   0.188E+01 0.127E+01 -.143E+01   0.680E-07 -.155E-05 0.229E-05
   0.218E+02 0.162E+02 -.101E+01   -.236E+02 -.174E+02 0.243E+01   0.188E+01 0.127E+01 -.143E+01   0.680E-07 -.155E-05 0.229E-05
   0.218E+02 0.162E+02 -.101E+01   -.236E+02 -.174E+02 0.243E+01   0.188E+01 0.127E+01 -.143E+01   0.680E-07 -.155E-05 0.229E-05
   0.218E+02 0.162E+02 -.101E+01   -.236E+02 -.174E+02 0.243E+01   0.188E+01 0.127E+01 -.143E+01   0.680E-07 -.155E-05 0.229E-05
   0.218E+02 0.162E+02 -.101E+01   -.236E+02 -.174E+02 0.243E+01   0.188E+01 0.127E+01 -.143E+01   0.680E-07 -.155E-05 0.229E-05
   0.132E+02 -.106E+02 0.214E+02   -.140E+02 0.128E+02 -.228E+02   0.781E+00 -.215E+01 0.139E+01   0.774E-07 0.107E-05 -.255E-05
   0.132E+02 -.106E+02 0.214E+02   -.140E+02 0.128E+02 -.228E+02   0.781E+00 -.215E+01 0.139E+01   0.774E-07 0.107E-05 -.255E-05
   0.132E+02 -.106E+02 0.214E+02   -.140E+02 0.128E+02 -.228E+02   0.781E+00 -.215E+01 0.139E+01   0.774E-07 0.107E-05 -.255E-05
   0.132E+02 -.106E+02 0.214E+02   -.140E+02 0.128E+02 -.228E+02   0.781E+00 -.215E+01 0.139E+01   0.774E-07 0.107E-05 -.255E-05
   0.132E+02 -.106E+02 0.214E+02   -.140E+02 0.128E+02 -.228E+02   0.781E+00 -.215E+01 0.139E+01   0.774E-07 0.107E-05 -.255E-05
   0.132E+02 -.106E+02 0.214E+02   -.140E+02 0.128E+02 -.228E+02   0.781E+00 -.215E+01 0.139E+01   0.774E-07 0.107E-05 -.255E-05
   0.132E+02 -.106E+02 0.214E+02   -.140E+02 0.128E+02 -.228E+02   0.781E+00 -.215E+01 0.139E+01   0.774E-07 0.107E-05 -.255E-05
   0.132E+02 -.106E+02 0.214E+02   -.140E+02 0.128E+02 -.228E+02   0.781E+00 -.215E+01 0.139E+01   0.774E-07 0.107E-05 -.255E-05
   0.847E+01 -.180E+02 -.186E+02   -.104E+02 0.195E+02 0.196E+02   0.195E+01 -.149E+01 -.105E+01   -.138E-05 0.168E-05 0.182E-05
   0.847E+01 -.180E+02 -.186E+02   -.104E+02 0.195E+02 0.196E+02   0.195E+01 -.149E+01 -.105E+01   -.138E-05 0.168E-05 0.182E-05
   0.847E+01 -.180E+02 -.186E+02   -.104E+02 0.195E+02 0.196E+02   0.195E+01 -.149E+01 -.105E+01   -.138E-05 0.168E-05 0.182E-05
   0.847E+01 -.180E+02 -.186E+02   -.104E+02 0.195E+02 0.196E+02   0.195E+01 -.149E+01 -.105E+01   -.138E-05 0.168E-05 0.182E-05
   0.847E+01 -.180E+02 -.186E+02   -.104E+02 0.195E+02 0.196E+02   0.195E+01 -.149E+01 -.105E+01   -.138E-05 0.168E-05 0.182E-05
   0.847E+01 -.180E+02 -.186E+02   -.104E+02 0.195E+02 0.196E+02   0.195E+01 -.149E+01 -.105E+01   -.138E-05 0.168E-05 0.182E-05
   0.847E+01 -.180E+02 -.186E+02   -.104E+02 0.195E+02 0.196E+02   0.195E+01 -.149E+01 -.105E+01   -.138E-05 0.168E-05 0.182E-05
   0.847E+01 -.180E+02 -.186E+02   -.104E+02 0.195E+02 0.196E+02   0.195E+01 -.149E+01 -.105E+01   -.138E-05 0.168E-05 0.182E-05
   -.218E+02 -.162E+02 0.101E+01   0.236E+02 0.174E+02 -.243E+01   -.188E+01 -.127E+01 0.143E+01   -.680E-07 0.155E-05 -.229E-05
   -.218E+02 -.162E+02 0.101E+01   0.236E+02 0.174E+02 -.243E+01   -.188E+01 -.127E+01 0.143E+01   -.680E-07 0.155E-05 -.229E-05
   -.218E+02 -.162E+02 0.101E+01   0.236E+02 0.174E+02 -.243E+01   -.188E+01 -.127E+01 0.143E+01   -.680E-07 0.155E-05 -.229E-05
   -.218E+02 -.162E+02 0.101E+01   0.236E+02 0.174E+02 -.243E+01   -.188E+01 -.127E+01 0.143E+01   -.680E-07 0.155E-05 -.229E-05
   -.218E+02 -.162E+02 0.101E+01   0.236E+02 0.174E+02 -.243E+01   -.188E+01 -.127E+01 0.143E+01   -.680E-07 0.155E-05 -.229E-05
   -.218E+02 -.162E+02 0.101E+01   0.236E+02 0.174E+02 -.243E+01   -.188E+01 -.127E+01 0.143E+01   -.680E-07 0.155E-05 -.229E-05
   -.218E+02 -.162E+02 0.101E+01   0.236E+02 0.174E+02 -.243E+01   -.188E+01 -.127E+01 0.143E+01   -.680E-07 0.155E-05 -.229E-05
   -.218E+02 -.162E+02 0.101E+01   0.236E+02 0.174E+02 -.243E+01   -.188E+01 -.127E+01 0.143E+01   -.680E-07 0.155E-05 -.229E-05
   -.132E+02 0.106E+02 -.214E+02   0.140E+02 -.128E+02 0.228E+02   -.781E+00 0.215E+01 -.139E+01   -.774E-07 -.107E-05 0.255E-05
   -.132E+02 0.106E+02 -.214E+02   0.140E+02 -.128E+02 0.228E+02   -.781E+00 0.215E+01 -.139E+01   -.774E-07 -.107E-05 0.255E-05
   -.132E+02 0.106E+02 -.214E+02   0.140E+02 -.128E+02 0.228E+02   -.781E+00 0.215E+01 -.139E+01   -.774E-07 -.107E-05 0.255E-05
   -.132E+02 0.106E+02 -.214E+02   0.140E+02 -.128E+02 0.228E+02   -.781E+00 0.215E+01 -.139E+01   -.774E-07 -.107E-05 0.255E-05
   -.132E+02 0.106E+02 -.214E+02   0.140E+02 -.128E+02 0.228E+02   -.781E+00 0.215E+01 -.139E+01   -.774E-07 -.107E-05 0.255E-05
   -.132E+02 0.106E+02 -.214E+02   0.140E+02 -.128E+02 0.228E+02   -.781E+00 0.215E+01 -.139E+01   -.774E-07 -.107E-05 0.255E-05
   -.132E+02 0.106E+02 -.214E+02   0.140E+02 -.128E+02 0.228E+02   -.781E+00 0.215E+01 -.139E+01   -.774E-07 -.107E-05 0.255E-05
   -.132E+02 0.106E+02 -.214E+02   0.140E+02 -.128E+02 0.228E+02   -.781E+00 0.215E+01 -.139E+01   -.774E-07 -.107E-05 0.255E-05
   0.374E+02 0.910E+01 0.258E+02   -.420E+02 -.937E+01 -.279E+02   0.464E+01 0.279E+00 0.213E+01   0.269E-06 0.777E-06 -.130E-05
   0.374E+02 0.910E+01 0.258E+02   -.420E+02 -.937E+01 -.279E+02   0.464E+01 0.279E+00 0.213E+01   0.269E-06 0.777E-06 -.130E-05
   0.374E+02 0.910E+01 0.258E+02   -.420E+02 -.937E+01 -.279E+02   0.464E+01 0.279E+00 0.213E+01   0.269E-06 0.777E-06 -.130E-05
   0.374E+02 0.910E+01 0.258E+02   -.420E+02 -.937E+01 -.279E+02   0.464E+01 0.279E+00 0.213E+01   0.269E-06 0.777E-06 -.130E-05
   0.374E+02 0.910E+01 0.258E+02   -.420E+02 -.937E+01 -.279E+02   0.464E+01 0.279E+00 0.213E+01   0.269E-06 0.777E-06 -.130E-05
   0.374E+02 0.910E+01 0.258E+02   -.420E+02 -.937E+01 -.279E+02   0.464E+01 0.279E+00 0.213E+01   0.269E-06 0.777E-06 -.130E-05
   0.374E+02 0.910E+01 0.258E+02   -.420E+02 -.937E+01 -.279E+02   0.464E+01 0.279E+00 0.213E+01   0.269E-06 0.777E-06 -.130E-05
   0.374E+02 0.910E+01 0.258E+02   -.420E+02 -.937E+01 -.279E+02   0.464E+01 0.279E+00 0.213E+01   0.269E-06 0.777E-06 -.130E-05
   0.901E+01 0.108E+02 0.442E+02   -.910E+01 -.113E+02 -.493E+02   0.765E-01 0.542E+00 0.506E+01   -.224E-06 0.260E-06 -.274E-05
   0.901E+01 0.108E+02 0.442E+02   -.910E+01 -.113E+02 -.493E+02   0.765E-01 0.542E+00 0.506E+01   -.224E-06 0.260E-06 -.274E-05
   0.901E+01 0.108E+02 0.442E+02   -.910E+01 -.113E+02 -.493E+02   0.765E-01 0.542E+00 0.506E+01   -.224E-06 0.260E-06 -.274E-05
   0.901E+01 0.108E+02 0.442E+02   -.910E+01 -.113E+02 -.493E+02   0.765E-01 0.542E+00 0.506E+01   -.224E-06 0.260E-06 -.274E-05
[...]
   0.156E+02 0.137E+02 0.229E+02   -.160E+02 -.140E+02 -.235E+02   0.382E+00 0.353E+00 0.585E+00   0.542E-06 -.977E-06 -.241E-05
   0.156E+02 0.137E+02 0.229E+02   -.160E+02 -.140E+02 -.235E+02   0.382E+00 0.353E+00 0.585E+00   0.542E-06 -.977E-06 -.241E-05
   0.156E+02 0.137E+02 0.229E+02   -.160E+02 -.140E+02 -.235E+02   0.382E+00 0.353E+00 0.585E+00   0.542E-06 -.977E-06 -.241E-05
   0.156E+02 0.137E+02 0.229E+02   -.160E+02 -.140E+02 -.235E+02   0.382E+00 0.353E+00 0.585E+00   0.542E-06 -.977E-06 -.241E-05
   0.156E+02 0.137E+02 0.229E+02   -.160E+02 -.140E+02 -.235E+02   0.382E+00 0.353E+00 0.585E+00   0.542E-06 -.977E-06 -.241E-05
   0.156E+02 0.137E+02 0.229E+02   -.160E+02 -.140E+02 -.235E+02   0.382E+00 0.353E+00 0.585E+00   0.542E-06 -.977E-06 -.241E-05
   -.156E+02 -.137E+02 -.229E+02   0.160E+02 0.140E+02 0.235E+02   -.382E+00 -.353E+00 -.585E+00   -.542E-06 0.977E-06 0.241E-05
   -.156E+02 -.137E+02 -.229E+02   0.160E+02 0.140E+02 0.235E+02   -.382E+00 -.353E+00 -.585E+00   -.542E-06 0.977E-06 0.241E-05
   -.156E+02 -.137E+02 -.229E+02   0.160E+02 0.140E+02 0.235E+02   -.382E+00 -.353E+00 -.585E+00   -.542E-06 0.977E-06 0.241E-05
   -.156E+02 -.137E+02 -.229E+02   0.160E+02 0.140E+02 0.235E+02   -.382E+00 -.353E+00 -.585E+00   -.542E-06 0.977E-06 0.241E-05
   -.156E+02 -.137E+02 -.229E+02   0.160E+02 0.140E+02 0.235E+02   -.382E+00 -.353E+00 -.585E+00   -.542E-06 0.977E-06 0.241E-05
   -.156E+02 -.137E+02 -.229E+02   0.160E+02 0.140E+02 0.235E+02   -.382E+00 -.353E+00 -.585E+00   -.542E-06 0.977E-06 0.241E-05
   -.156E+02 -.137E+02 -.229E+02   0.160E+02 0.140E+02 0.235E+02   -.382E+00 -.353E+00 -.585E+00   -.542E-06 0.977E-06 0.241E-05
   -.156E+02 -.137E+02 -.229E+02   0.160E+02 0.140E+02 0.235E+02   -.382E+00 -.353E+00 -.585E+00   -.542E-06 0.977E-06 0.241E-05
   0.113E-10 0.184E-10 0.745E-11   0.192E-12 -.178E-13 -.320E-12   -.431E-13 0.163E-13 0.214E-13   0.813E-13 0.140E-12 0.162E-12

 POSITION                                       TOTAL-FORCE (eV/Angst)
      2.65826      4.21367      6.16910         0.018038      0.000645     -0.009299
      2.70909      4.72265     11.29412         0.018038      0.000645     -0.009299
      4.05140      8.87242      7.89736         0.018038      0.000645     -0.009299
      4.10223      9.38140     13.02239         0.018038      0.000645     -0.009299
      7.34498      4.45078      8.29587         0.018038      0.000645     -0.009299
      7.39581      4.95976     13.42089         0.018038      0.000645     -0.009299
      8.73812      9.10953     10.02413         0.018038      0.000645     -0.009299
      8.78895      9.61850     15.14916         0.018038      0.000645     -0.009299
      4.88442      4.08382      4.72965         0.015050      0.000235     -0.013052
      4.93525      4.59280      9.85467         0.015050      0.000235     -0.013052
      6.27756      8.74257      6.45791         0.015050      0.000235     -0.013052
      6.32839      9.25154     11.58294         0.015050      0.000235     -0.013052
      9.57114      4.32092      6.85642         0.015050      0.000235     -0.013052
      9.62197      4.82990     11.98144         0.015050      0.000235     -0.013052
     10.96428      8.97967      8.58468         0.015050      0.000235     -0.013052
     11.01511      9.48865     13.70971         0.015050      0.000235     -0.013052
      4.23745      2.08724      6.35792         0.020416      0.006263     -0.002759
      4.28828      2.59621     11.48294         0.020416      0.006263     -0.002759
      5.63059      6.74598      8.08618         0.020416      0.006263     -0.002759
      5.68142      7.25496     13.21121         0.020416      0.006263     -0.002759
      8.92417      2.32434      8.48469         0.020416      0.006263     -0.002759
      8.97500      2.83332     13.60971         0.020416      0.006263     -0.002759
     10.31731      6.98309     10.21295         0.020416      0.006263     -0.002759
     10.36814      7.49207     15.33798         0.020416      0.006263     -0.002759
      3.47243      1.19116      2.81096        -0.018038     -0.000645      0.009299
      3.52325      1.70014      7.93598        -0.018038     -0.000645      0.009299
      4.86556      5.84991      4.53922        -0.018038     -0.000645      0.009299
      4.91639      6.35889      9.66424        -0.018038     -0.000645      0.009299
      8.15914      1.42826      4.93773        -0.018038     -0.000645      0.009299
      8.20997      1.93724     10.06275        -0.018038     -0.000645      0.009299
      9.55228      6.08701      6.66599        -0.018038     -0.000645      0.009299
      9.60311      6.59599     11.79101        -0.018038     -0.000645      0.009299
      1.24626      1.32101      4.25041        -0.015050     -0.000235      0.013052
      1.29709      1.82999      9.37543        -0.015050     -0.000235      0.013052
      2.63940      5.97976      5.97867        -0.015050     -0.000235      0.013052
      2.69023      6.48874     11.10370        -0.015050     -0.000235      0.013052
      5.93298      1.55812      6.37718        -0.015050     -0.000235      0.013052
      5.98381      2.06710     11.50220        -0.015050     -0.000235      0.013052
      7.32612      6.21687      8.10544        -0.015050     -0.000235      0.013052
      7.37695      6.72585     13.23047        -0.015050     -0.000235      0.013052
      1.89323      3.31759      2.62214        -0.020416     -0.006263      0.002759
      1.94406      3.82657      7.74716        -0.020416     -0.006263      0.002759
      3.28637      7.97634      4.35040        -0.020416     -0.006263      0.002759
      3.33720      8.48532      9.47543        -0.020416     -0.006263      0.002759
      6.57995      3.55470      4.74891        -0.020416     -0.006263      0.002759
      6.63078      4.06368      9.87393        -0.020416     -0.006263      0.002759
      7.97309      8.21345      6.47717        -0.020416     -0.006263      0.002759
      8.02392      8.72243     11.60220        -0.020416     -0.006263      0.002759
      3.11400      0.15898      1.41615         0.013454      0.005297     -0.002073
      3.16483      0.66796      6.54117         0.013454      0.005297     -0.002073
      4.50714      4.81773      3.14441         0.013454      0.005297     -0.002073
      4.55797      5.32670      8.26944         0.013454      0.005297     -0.002073
      7.80072      0.39608      3.54292         0.013454      0.005297     -0.002073
      7.85155      0.90506      8.66794         0.013454      0.005297     -0.002073
      9.19386      5.05483      5.27118         0.013454      0.005297     -0.002073
      9.24469      5.56381     10.39621         0.013454      0.005297     -0.002073
      0.03721      0.33921      3.40701        -0.018401      0.004717     -0.002955
      0.08803      0.84819      8.53204        -0.018401      0.004717     -0.002955
      1.43034      4.99796      5.13528        -0.018401      0.004717     -0.002955
      1.48117      5.50694     10.26030        -0.018401      0.004717     -0.002955
[...]
      3.91457      3.91383     10.78366        -0.019994      0.010190      0.012695
      5.25688      8.06360      7.38690        -0.019994      0.010190      0.012695
      5.30771      8.57257     12.51192        -0.019994      0.010190      0.012695
      8.55046      3.64195      7.78540        -0.019994      0.010190      0.012695
      8.60129      4.15093     12.91043        -0.019994      0.010190      0.012695
      9.94360      8.30070      9.51367        -0.019994      0.010190      0.012695
      9.99442      8.80968     14.63869        -0.019994      0.010190      0.012695
      2.26695      1.99998      3.32142         0.019994     -0.010190     -0.012695
      2.31778      2.50896      8.44645         0.019994     -0.010190     -0.012695
      3.66009      6.65873      5.04969         0.019994     -0.010190     -0.012695
      3.71092      7.16771     10.17471         0.019994     -0.010190     -0.012695
      6.95367      2.23709      5.44819         0.019994     -0.010190     -0.012695
      7.00449      2.74607     10.57322         0.019994     -0.010190     -0.012695
      8.34681      6.89584      7.17646         0.019994     -0.010190     -0.012695
      8.39763      7.40481     12.30148         0.019994     -0.010190     -0.012695
    total drift:                                0.000000      0.000000      0.000000

  FREE ENERGIE OF THE ION-ELECTRON SYSTEM (eV)
  free  energy   TOTEN  =      -793.81333405 eV

  energy  without entropy=     -793.81333405  energy(sigma->0) =     -793.81333405

 d Force = 0.3724207E-03[ 0.201E-03, 0.544E-03]  d Energy = 0.6109083E-03-0.238E-03
 d Force =-0.6946566E-01[-0.696E-01,-0.693E-01]  d Ewald  =-0.3927926E-01-0.302E-01

 reached required accuracy - stopping structural energy minimisation
|           W    W    AA    RRRRR   N    N  II  N    N   GGGG   !!!           |
|           W    W   A  A   R    R  NN   N  II  NN   N  G    G  !!!           |
|           W    W  A    A  R    R  N N  N  II  N N  N  G       !!!           |
|           W WW W  AAAAAA  RRRRR   N  N N  II  N  N N  G  GGG   !            |
|           WW  WW  A    A  R   R   N   NN  II  N   NN  G    G                |
|           W    W  A    A  R    R  N    N  II  N    N   GGGG   !!!           |
|     Tetrahedron method does not include variations of the Fermi             |
|     occupations, so forces and stress will be inaccurate. We suggest        |
|     using a different smearing scheme ISMEAR = 1 or 2 for metals in         |
|     relaxations.                                                            |

 BZINTS: Fermi energy:    4.191654;  352.000000 electrons
         Band energy:-0.487254E+03;  BLOECHL correction:   -0.131348