 vasp.6.2.0 18Jan21 (build Feb 25 2021 07:51:20) complex
 executed on             LinuxPGI date 2022.04.12  13:24:52

 INCAR:
   ALGO = Fast
   PREC = Accurate
   EDIFF = 1E-6
   ENCUT = 700
   ISMEAR = -5
   IBRION = 2
   ISIF = 4
   LREAL = Auto
   LWAVE = False
   LCHARGE = False
   NSW = 300
   SIGMA = 0.05

 POTCAR:    PAW_PBE B 06Sep2000
 POTCAR:    PAW_PBE C 08Apr2002
 POTCAR:    PAW_PBE B 06Sep2000
   VRHFIN =B: s2p1

   TITEL  = PAW_PBE B 06Sep2000
   POMASS =   10.811; ZVAL   =    3.000    mass and valenz
   ENMAX  =  318.614; ENMIN  =  238.960 eV

 POTCAR:    PAW_PBE C 08Apr2002
   VRHFIN =C: s2p2

   TITEL  = PAW_PBE C 08Apr2002
   POMASS =   12.011; ZVAL   =    4.000    mass and valenz
   ENMAX  =  400.000; ENMIN  =  300.000 eV

 Optimization of the real space projectors (new method)

 maximal supplied QI-value         = 22.11
 optimisation between [QCUT,QGAM] = [ 13.49, 26.97] = [ 50.94,203.75] Ry
 Optimized for a Real-space Cutoff    1.14 Angstroem

   l    n(q)    QCUT    max X(q) W(low)/X(q) W(high)/X(q)  e(spline)
   0      9    13.487    53.033    0.17E-03    0.11E-03    0.20E-06
   0      9    13.487    34.740    0.17E-03    0.11E-03    0.20E-06
   1      9    13.487    30.949    0.61E-04    0.25E-04    0.11E-06
   1      9    13.487    19.518    0.55E-04    0.23E-04    0.10E-06
 Optimization of the real space projectors (new method)

 maximal supplied QI-value         = 25.13
 optimisation between [QCUT,QGAM] = [ 13.32, 26.89] = [ 49.69,202.52] Ry
 Optimized for a Real-space Cutoff    1.07 Angstroem

   l    n(q)    QCUT    max X(q) W(low)/X(q) W(high)/X(q)  e(spline)
   0      9    13.321   115.676    0.24E-03    0.18E-03    0.16E-06
   0      9    13.321    87.132    0.24E-03    0.18E-03    0.16E-06
   1      8    13.321     4.429    0.20E-03    0.27E-03    0.12E-06
   1      8    13.321     2.733    0.16E-03    0.21E-03    0.12E-06
  PAW_PBE B 06Sep2000                   :
  PAW_PBE C 08Apr2002                   :

 POSCAR: B96 C24
  positions in direct lattice
 exchange correlation table for  LEXCH =        8
   RHO(1)=    0.500       N(1)  =     2000
   RHO(2)=  100.500       N(2)  =     4000

 ion  position               nearest neighbor table
   1  0.158  0.404  0.404- 105 1.61  42 1.75  35 1.75  61 1.80  53 1.80  68 1.80
   2  0.158  0.404  0.904- 106 1.61  41 1.75  36 1.75  62 1.80  54 1.80  67 1.80
   3  0.158  0.904  0.404- 107 1.61  44 1.75  33 1.75  63 1.80  55 1.80  66 1.80
   4  0.158  0.904  0.904- 108 1.61  43 1.75  34 1.75  64 1.80  56 1.80  65 1.80
   5  0.658  0.404  0.404- 109 1.61  46 1.75  39 1.75  57 1.80  49 1.80  72 1.80
   6  0.658  0.404  0.904- 110 1.61  45 1.75  40 1.75  58 1.80  50 1.80  71 1.80
   7  0.658  0.904  0.404- 111 1.61  48 1.75  37 1.75  59 1.80  51 1.80  70 1.80
   8  0.658  0.904  0.904- 112 1.61  47 1.75  38 1.75  60 1.80  52 1.80  69 1.80
   9  0.402  0.402  0.157- 105 1.62  45 1.75  27 1.76  98 1.77  79 1.78  58 1.81
  10  0.402  0.402  0.657- 106 1.62  46 1.75  28 1.76  97 1.77  80 1.78  57 1.81
  11  0.402  0.902  0.157- 107 1.62  47 1.75  25 1.76 100 1.77  77 1.78  60 1.81
  12  0.402  0.902  0.657- 108 1.62  48 1.75  26 1.76  99 1.77  78 1.78  59 1.81
  13  0.902  0.402  0.157- 109 1.62  41 1.75  31 1.76 102 1.77  75 1.78  62 1.81
  14  0.902  0.402  0.657- 110 1.62  42 1.75  32 1.76 101 1.77  76 1.78  61 1.81
  15  0.902  0.902  0.157- 111 1.62  43 1.75  29 1.76 104 1.77  73 1.78  64 1.81
  16  0.902  0.902  0.657- 112 1.62  44 1.75  30 1.76 103 1.77  74 1.78  63 1.81
  17  0.402  0.157  0.402- 105 1.62  37 1.75  26 1.76  99 1.77  86 1.78  51 1.81
  18  0.402  0.157  0.902- 106 1.62  38 1.75  25 1.76 100 1.77  85 1.78  52 1.81
  19  0.402  0.657  0.402- 107 1.62  39 1.75  28 1.76  97 1.77  88 1.78  49 1.81
  20  0.402  0.657  0.902- 108 1.62  40 1.75  27 1.76  98 1.77  87 1.78  50 1.81
  21  0.902  0.157  0.402- 109 1.62  33 1.75  30 1.76 103 1.77  82 1.78  55 1.81
  22  0.902  0.157  0.902- 110 1.62  34 1.75  29 1.76 104 1.77  81 1.78  56 1.81
  23  0.902  0.657  0.402- 111 1.62  35 1.75  32 1.76 101 1.77  84 1.78  53 1.81
  24  0.902  0.657  0.902- 112 1.62  36 1.75  31 1.76 102 1.77  83 1.78  54 1.81
  25  0.341  0.097  0.097- 113 1.59 100 1.74  18 1.76  11 1.76  85 1.79  77 1.79
  26  0.341  0.097  0.597- 114 1.59  99 1.74  17 1.76  12 1.76  86 1.79  78 1.79
  27  0.341  0.597  0.097- 115 1.59  98 1.74  20 1.76   9 1.76  87 1.79  79 1.79
  28  0.341  0.597  0.597- 116 1.59  97 1.74  19 1.76  10 1.76  88 1.79  80 1.79
  29  0.841  0.097  0.097- 117 1.59 104 1.74  22 1.76  15 1.76  81 1.79  73 1.79
  30  0.841  0.097  0.597- 118 1.59 103 1.74  21 1.76  16 1.76  82 1.79  74 1.79
  31  0.841  0.597  0.097- 119 1.59 102 1.74  24 1.76  13 1.76  83 1.79  75 1.79
  32  0.841  0.597  0.597- 120 1.59 101 1.74  23 1.76  14 1.76  84 1.79  76 1.79
  33  0.099  0.097  0.344- 113 1.61  21 1.75   3 1.75  55 1.79  82 1.81  66 1.82
  34  0.099  0.097  0.844- 114 1.61  22 1.75   4 1.75  56 1.79  81 1.81  65 1.82
  35  0.099  0.597  0.344- 115 1.61  23 1.75   1 1.75  53 1.79  84 1.81  68 1.82
  36  0.099  0.597  0.844- 116 1.61  24 1.75   2 1.75  54 1.79  83 1.81  67 1.82
  37  0.599  0.097  0.344- 117 1.61  17 1.75   7 1.75  51 1.79  86 1.81  70 1.82
  38  0.599  0.097  0.844- 118 1.61  18 1.75   8 1.75  52 1.79  85 1.81  69 1.82
  39  0.599  0.597  0.344- 119 1.61  19 1.75   5 1.75  49 1.79  88 1.81  72 1.82
  40  0.599  0.597  0.844- 120 1.61  20 1.75   6 1.75  50 1.79  87 1.81  71 1.82
  41  0.099  0.344  0.097- 113 1.61  13 1.75   2 1.75  62 1.79  75 1.81  67 1.82
  42  0.099  0.344  0.597- 114 1.61  14 1.75   1 1.75  61 1.79  76 1.81  68 1.82
  43  0.099  0.844  0.097- 115 1.61  15 1.75   4 1.75  64 1.79  73 1.81  65 1.82
  44  0.099  0.844  0.597- 116 1.61  16 1.75   3 1.75  63 1.79  74 1.81  66 1.82
  45  0.599  0.344  0.097- 117 1.61   9 1.75   6 1.75  58 1.79  79 1.81  71 1.82
  46  0.599  0.344  0.597- 118 1.61  10 1.75   5 1.75  57 1.79  80 1.81  72 1.82
  47  0.599  0.844  0.097- 119 1.61  11 1.75   8 1.75  60 1.79  77 1.81  69 1.82
  48  0.599  0.844  0.597- 120 1.61  12 1.75   7 1.75  59 1.79  78 1.81  70 1.82
  49  0.494  0.497  0.337-  79 1.74  97 1.78  39 1.79   5 1.80  19 1.81  57 1.81
  50  0.494  0.497  0.837-  80 1.74  98 1.78  40 1.79   6 1.80  20 1.81  58 1.81
  51  0.494  0.997  0.337-  77 1.74  99 1.78  37 1.79   7 1.80  17 1.81  59 1.81
  52  0.494  0.997  0.837-  78 1.74 100 1.78  38 1.79   8 1.80  18 1.81  60 1.81
  53  0.994  0.497  0.337-  75 1.74 101 1.78  35 1.79   1 1.80  23 1.81  61 1.81
  54  0.994  0.497  0.837-  76 1.74 102 1.78  36 1.79   2 1.80  24 1.81  62 1.81
  55  0.994  0.997  0.337-  73 1.74 103 1.78  33 1.79   3 1.80  21 1.81  63 1.81
  56  0.994  0.997  0.837-  74 1.74 104 1.78  34 1.79   4 1.80  22 1.81  64 1.81
  57  0.494  0.337  0.497-  86 1.74  97 1.78  46 1.79   5 1.80  10 1.81  49 1.81
  58  0.494  0.337  0.997-  85 1.74  98 1.78  45 1.79   6 1.80   9 1.81  50 1.81
  59  0.494  0.837  0.497-  88 1.74  99 1.78  48 1.79   7 1.80  12 1.81  51 1.81
  60  0.494  0.837  0.997-  87 1.74 100 1.78  47 1.79   8 1.80  11 1.81  52 1.81
[...]
 106  0.306  0.309  0.809-  90 1.44   2 1.61  10 1.62  18 1.62
 107  0.306  0.809  0.309-  91 1.44   3 1.61  11 1.62  19 1.62
 108  0.306  0.809  0.809-  92 1.44   4 1.61  12 1.62  20 1.62
 109  0.806  0.309  0.309-  93 1.44   5 1.61  13 1.62  21 1.62
 110  0.806  0.309  0.809-  94 1.44   6 1.61  14 1.62  22 1.62
 111  0.806  0.809  0.309-  95 1.44   7 1.61  15 1.62  23 1.62
 112  0.806  0.809  0.809-  96 1.44   8 1.61  16 1.62  24 1.62
 113  0.191  0.189  0.189-  89 1.43  25 1.59  33 1.61  41 1.61
 114  0.191  0.189  0.689-  90 1.43  26 1.59  34 1.61  42 1.61
 115  0.191  0.689  0.189-  91 1.43  27 1.59  35 1.61  43 1.61
 116  0.191  0.689  0.689-  92 1.43  28 1.59  36 1.61  44 1.61
 117  0.691  0.189  0.189-  93 1.43  29 1.59  37 1.61  45 1.61
 118  0.691  0.189  0.689-  94 1.43  30 1.59  38 1.61  46 1.61
 119  0.691  0.689  0.189-  95 1.43  31 1.59  39 1.61  47 1.61
 120  0.691  0.689  0.689-  96 1.43  32 1.59  40 1.61  48 1.61

  LATTYP: Found a base centered monoclinic cell.
 ALAT       =    17.5191754520
 B/A-ratio  =     0.6417943845
 C/A-ratio  =     0.5791019949
 COS(beta)  =    -0.4855437661

  Lattice vectors:

 A1 = (  -2.6767470000,  -9.0995700000,  -4.2858470000)
 A2 = (   0.0514440000,  -0.0720330000, -10.4080630000)
 A3 = (   9.2390870000,   0.0501890000,   4.1911430000)

Analysis of symmetry for initial positions (statically):
 Subroutine PRICEL returns following result:

[...]

   8 primitive cells build up your supercell.

 Routine SETGRP: Setting up the symmetry group for a
 base centered monoclinic supercell.

 Subroutine GETGRP returns: Found  2 space group operations
 (whereof  2 operations were pure point group operations)
 out of a pool of  4 trial point group operations.

The static configuration has the point symmetry C_1h.

Analysis of symmetry for dynamics (positions and initial velocities):
 Subroutine PRICEL returns following result:

  LATTYP: Found a base centered monoclinic cell.
 ALAT       =     8.7595877260
 B/A-ratio  =     0.6417943845
 C/A-ratio  =     0.5791019949
 COS(beta)  =    -0.4855437661

  Lattice vectors:

 A1 = (  -1.3383735000,  -4.5497850000,  -2.1429235000)
 A2 = (   0.0257220000,  -0.0360165000,  -5.2040315000)
 A3 = (   4.6195435000,   0.0250945000,   2.0955715000)

   8 primitive cells build up your supercell.

 Routine SETGRP: Setting up the symmetry group for a
 base centered monoclinic supercell.

 Subroutine GETGRP returns: Found  2 space group operations
 (whereof  2 operations were pure point group operations)
 out of a pool of  4 trial point group operations.

The dynamic configuration has the point symmetry C_1h.

 Subroutine INISYM returns: Found  2 space group operations
 (whereof  2 operations are pure point group operations),
 and found     8 'primitive' translations

                                     Primitive cell

  volume of cell :     109.1915

  direct lattice vectors                    reciprocal lattice vectors
    -1.338373500 -4.549785000 -2.142923500     0.000504777 -0.220659550  0.001529654
     0.025722000 -0.036016500 -5.204031500     0.086825644  0.064974559 -0.192179242
     4.619543500  0.025094500  2.095571500     0.216134398 -0.064291238  0.001513241

  length of vectors
     5.204220239  5.204219698  5.072694727     0.220665430  0.220665463  0.225498849

  position of ions in fractional coordinates (direct lattice)
     0.192484000  0.192484000  0.315846000
     0.195324000  0.685560000  0.803264000
     0.685560000  0.195324000  0.803264000
     0.806670000  0.806670000  0.682732000
     0.806328000  0.312578000  0.197400000
     0.312578000  0.806328000  0.197400000
     0.005202000  0.326404000  0.988894000
     0.326404000  0.005202000  0.988894000
     0.994100000  0.994100000  0.341590000
     0.994490000  0.671276000  0.006950000
     0.671276000  0.994490000  0.006950000
     0.501982000  0.501982000  0.495990000
     0.004144000  0.004144000  0.676672000
     0.381126000  0.381126000  0.612176000
     0.622330000  0.622330000  0.381978000

  ion indices of the primitive-cell ions
   primitive index   ion index
                 1           1
[...]
   -.189E+02 0.121E+02 0.941E+01   0.205E+02 -.129E+02 -.986E+01   -.159E+01 0.783E+00 0.445E+00   0.271E-03 0.511E-04 0.196E-03
   -.189E+02 0.121E+02 0.941E+01   0.205E+02 -.129E+02 -.986E+01   -.159E+01 0.783E+00 0.445E+00   0.271E-03 0.511E-04 0.196E-03
   -.189E+02 0.121E+02 0.941E+01   0.205E+02 -.129E+02 -.986E+01   -.159E+01 0.783E+00 0.445E+00   0.271E-03 0.511E-04 0.196E-03
   -.189E+02 0.121E+02 0.941E+01   0.205E+02 -.129E+02 -.986E+01   -.159E+01 0.783E+00 0.445E+00   0.271E-03 0.511E-04 0.196E-03
   -.189E+02 0.121E+02 0.941E+01   0.205E+02 -.129E+02 -.986E+01   -.159E+01 0.783E+00 0.445E+00   0.271E-03 0.511E-04 0.196E-03
   -.189E+02 0.121E+02 0.941E+01   0.205E+02 -.129E+02 -.986E+01   -.159E+01 0.783E+00 0.445E+00   0.271E-03 0.511E-04 0.196E-03
   -.189E+02 0.121E+02 0.941E+01   0.205E+02 -.129E+02 -.986E+01   -.159E+01 0.783E+00 0.445E+00   0.271E-03 0.511E-04 0.196E-03
   -.189E+02 0.121E+02 0.941E+01   0.205E+02 -.129E+02 -.986E+01   -.159E+01 0.783E+00 0.445E+00   0.271E-03 0.511E-04 0.196E-03
   0.136E+02 0.189E+02 -.214E+02   -.138E+02 -.204E+02 0.242E+02   0.208E+00 0.153E+01 -.280E+01   0.951E-04 0.195E-03 0.198E-04
   0.136E+02 0.189E+02 -.214E+02   -.138E+02 -.204E+02 0.242E+02   0.208E+00 0.153E+01 -.280E+01   0.951E-04 0.195E-03 0.198E-04
   0.136E+02 0.189E+02 -.214E+02   -.138E+02 -.204E+02 0.242E+02   0.208E+00 0.153E+01 -.280E+01   0.951E-04 0.195E-03 0.198E-04
   0.136E+02 0.189E+02 -.214E+02   -.138E+02 -.204E+02 0.242E+02   0.208E+00 0.153E+01 -.280E+01   0.951E-04 0.195E-03 0.198E-04
   0.136E+02 0.189E+02 -.214E+02   -.138E+02 -.204E+02 0.242E+02   0.208E+00 0.153E+01 -.280E+01   0.951E-04 0.195E-03 0.198E-04
   0.136E+02 0.189E+02 -.214E+02   -.138E+02 -.204E+02 0.242E+02   0.208E+00 0.153E+01 -.280E+01   0.951E-04 0.195E-03 0.198E-04
   0.136E+02 0.189E+02 -.214E+02   -.138E+02 -.204E+02 0.242E+02   0.208E+00 0.153E+01 -.280E+01   0.951E-04 0.195E-03 0.198E-04
   0.136E+02 0.189E+02 -.214E+02   -.138E+02 -.204E+02 0.242E+02   0.208E+00 0.153E+01 -.280E+01   0.951E-04 0.195E-03 0.198E-04
   -.104E+01 -.295E+02 0.114E+02   0.219E+01 0.325E+02 -.117E+02   -.115E+01 -.297E+01 0.251E+00   0.131E-04 -.762E-04 0.204E-03
   -.104E+01 -.295E+02 0.114E+02   0.219E+01 0.325E+02 -.117E+02   -.115E+01 -.297E+01 0.251E+00   0.131E-04 -.762E-04 0.204E-03
   -.104E+01 -.295E+02 0.114E+02   0.219E+01 0.325E+02 -.117E+02   -.115E+01 -.297E+01 0.251E+00   0.131E-04 -.762E-04 0.204E-03
   -.104E+01 -.295E+02 0.114E+02   0.219E+01 0.325E+02 -.117E+02   -.115E+01 -.297E+01 0.251E+00   0.131E-04 -.762E-04 0.204E-03
   -.104E+01 -.295E+02 0.114E+02   0.219E+01 0.325E+02 -.117E+02   -.115E+01 -.297E+01 0.251E+00   0.131E-04 -.762E-04 0.204E-03
   -.104E+01 -.295E+02 0.114E+02   0.219E+01 0.325E+02 -.117E+02   -.115E+01 -.297E+01 0.251E+00   0.131E-04 -.762E-04 0.204E-03
   -.104E+01 -.295E+02 0.114E+02   0.219E+01 0.325E+02 -.117E+02   -.115E+01 -.297E+01 0.251E+00   0.131E-04 -.762E-04 0.204E-03
   -.104E+01 -.295E+02 0.114E+02   0.219E+01 0.325E+02 -.117E+02   -.115E+01 -.297E+01 0.251E+00   0.131E-04 -.762E-04 0.204E-03
   0.130E+02 -.169E+02 -.191E+02   -.141E+02 0.186E+02 0.211E+02   0.117E+01 -.170E+01 -.199E+01   0.288E-03 -.507E-04 0.536E-04
   0.130E+02 -.169E+02 -.191E+02   -.141E+02 0.186E+02 0.211E+02   0.117E+01 -.170E+01 -.199E+01   0.288E-03 -.507E-04 0.536E-04
   0.130E+02 -.169E+02 -.191E+02   -.141E+02 0.186E+02 0.211E+02   0.117E+01 -.170E+01 -.199E+01   0.288E-03 -.507E-04 0.536E-04
   0.130E+02 -.169E+02 -.191E+02   -.141E+02 0.186E+02 0.211E+02   0.117E+01 -.170E+01 -.199E+01   0.288E-03 -.507E-04 0.536E-04
   0.130E+02 -.169E+02 -.191E+02   -.141E+02 0.186E+02 0.211E+02   0.117E+01 -.170E+01 -.199E+01   0.288E-03 -.507E-04 0.536E-04
   0.130E+02 -.169E+02 -.191E+02   -.141E+02 0.186E+02 0.211E+02   0.117E+01 -.170E+01 -.199E+01   0.288E-03 -.507E-04 0.536E-04
   0.130E+02 -.169E+02 -.191E+02   -.141E+02 0.186E+02 0.211E+02   0.117E+01 -.170E+01 -.199E+01   0.288E-03 -.507E-04 0.536E-04
   0.130E+02 -.169E+02 -.191E+02   -.141E+02 0.186E+02 0.211E+02   0.117E+01 -.170E+01 -.199E+01   0.288E-03 -.507E-04 0.536E-04
   -.161E+02 -.137E+02 0.894E+01   0.169E+02 0.141E+02 -.103E+02   -.741E+00 -.340E+00 0.135E+01   0.189E-03 0.127E-03 0.166E-03
   -.161E+02 -.137E+02 0.894E+01   0.169E+02 0.141E+02 -.103E+02   -.741E+00 -.340E+00 0.135E+01   0.189E-03 0.127E-03 0.166E-03
   -.161E+02 -.137E+02 0.894E+01   0.169E+02 0.141E+02 -.103E+02   -.741E+00 -.340E+00 0.135E+01   0.189E-03 0.127E-03 0.166E-03
   -.161E+02 -.137E+02 0.894E+01   0.169E+02 0.141E+02 -.103E+02   -.741E+00 -.340E+00 0.135E+01   0.189E-03 0.127E-03 0.166E-03
   -.161E+02 -.137E+02 0.894E+01   0.169E+02 0.141E+02 -.103E+02   -.741E+00 -.340E+00 0.135E+01   0.189E-03 0.127E-03 0.166E-03
   -.161E+02 -.137E+02 0.894E+01   0.169E+02 0.141E+02 -.103E+02   -.741E+00 -.340E+00 0.135E+01   0.189E-03 0.127E-03 0.166E-03
   -.161E+02 -.137E+02 0.894E+01   0.169E+02 0.141E+02 -.103E+02   -.741E+00 -.340E+00 0.135E+01   0.189E-03 0.127E-03 0.166E-03
   -.161E+02 -.137E+02 0.894E+01   0.169E+02 0.141E+02 -.103E+02   -.741E+00 -.340E+00 0.135E+01   0.189E-03 0.127E-03 0.166E-03
   -.651E+01 0.181E+02 -.126E+02   0.667E+01 -.196E+02 0.126E+02   -.166E+00 0.156E+01 0.548E-01   0.161E-03 0.343E-04 0.229E-03
   -.651E+01 0.181E+02 -.126E+02   0.667E+01 -.196E+02 0.126E+02   -.166E+00 0.156E+01 0.548E-01   0.161E-03 0.343E-04 0.229E-03
   -.651E+01 0.181E+02 -.126E+02   0.667E+01 -.196E+02 0.126E+02   -.166E+00 0.156E+01 0.548E-01   0.161E-03 0.343E-04 0.229E-03
   -.651E+01 0.181E+02 -.126E+02   0.667E+01 -.196E+02 0.126E+02   -.166E+00 0.156E+01 0.548E-01   0.161E-03 0.343E-04 0.229E-03
   -.651E+01 0.181E+02 -.126E+02   0.667E+01 -.196E+02 0.126E+02   -.166E+00 0.156E+01 0.548E-01   0.161E-03 0.343E-04 0.229E-03
   -.651E+01 0.181E+02 -.126E+02   0.667E+01 -.196E+02 0.126E+02   -.166E+00 0.156E+01 0.548E-01   0.161E-03 0.343E-04 0.229E-03
   -.651E+01 0.181E+02 -.126E+02   0.667E+01 -.196E+02 0.126E+02   -.166E+00 0.156E+01 0.548E-01   0.161E-03 0.343E-04 0.229E-03
   -.651E+01 0.181E+02 -.126E+02   0.667E+01 -.196E+02 0.126E+02   -.166E+00 0.156E+01 0.548E-01   0.161E-03 0.343E-04 0.229E-03
   -.137E+01 0.498E+01 0.539E+02   0.294E+01 -.516E+01 -.594E+02   -.157E+01 0.172E+00 0.543E+01   -.244E-03 -.584E-04 -.208E-03
   -.137E+01 0.498E+01 0.539E+02   0.294E+01 -.516E+01 -.594E+02   -.157E+01 0.172E+00 0.543E+01   -.244E-03 -.584E-04 -.208E-03
   -.137E+01 0.498E+01 0.539E+02   0.294E+01 -.516E+01 -.594E+02   -.157E+01 0.172E+00 0.543E+01   -.244E-03 -.584E-04 -.208E-03
   -.137E+01 0.498E+01 0.539E+02   0.294E+01 -.516E+01 -.594E+02   -.157E+01 0.172E+00 0.543E+01   -.244E-03 -.584E-04 -.208E-03
   -.137E+01 0.498E+01 0.539E+02   0.294E+01 -.516E+01 -.594E+02   -.157E+01 0.172E+00 0.543E+01   -.244E-03 -.584E-04 -.208E-03
   -.137E+01 0.498E+01 0.539E+02   0.294E+01 -.516E+01 -.594E+02   -.157E+01 0.172E+00 0.543E+01   -.244E-03 -.584E-04 -.208E-03
   -.137E+01 0.498E+01 0.539E+02   0.294E+01 -.516E+01 -.594E+02   -.157E+01 0.172E+00 0.543E+01   -.244E-03 -.584E-04 -.208E-03
   -.137E+01 0.498E+01 0.539E+02   0.294E+01 -.516E+01 -.594E+02   -.157E+01 0.172E+00 0.543E+01   -.244E-03 -.584E-04 -.208E-03
   0.111E+02 0.462E+02 0.259E+02   -.111E+02 -.516E+02 -.279E+02   -.168E-01 0.531E+01 0.195E+01   -.247E-03 -.702E-04 -.200E-03
   0.111E+02 0.462E+02 0.259E+02   -.111E+02 -.516E+02 -.279E+02   -.168E-01 0.531E+01 0.195E+01   -.247E-03 -.702E-04 -.200E-03
   0.111E+02 0.462E+02 0.259E+02   -.111E+02 -.516E+02 -.279E+02   -.168E-01 0.531E+01 0.195E+01   -.247E-03 -.702E-04 -.200E-03
   0.111E+02 0.462E+02 0.259E+02   -.111E+02 -.516E+02 -.279E+02   -.168E-01 0.531E+01 0.195E+01   -.247E-03 -.702E-04 -.200E-03
[...]
   -.142E+02 -.121E+02 -.242E+02   0.160E+02 0.145E+02 0.285E+02   -.176E+01 -.241E+01 -.434E+01   0.590E-03 0.732E-03 0.134E-02
   -.142E+02 -.121E+02 -.242E+02   0.160E+02 0.145E+02 0.285E+02   -.176E+01 -.241E+01 -.434E+01   0.590E-03 0.732E-03 0.134E-02
   -.142E+02 -.121E+02 -.242E+02   0.160E+02 0.145E+02 0.285E+02   -.176E+01 -.241E+01 -.434E+01   0.590E-03 0.732E-03 0.134E-02
   -.142E+02 -.121E+02 -.242E+02   0.160E+02 0.145E+02 0.285E+02   -.176E+01 -.241E+01 -.434E+01   0.590E-03 0.732E-03 0.134E-02
   -.142E+02 -.121E+02 -.242E+02   0.160E+02 0.145E+02 0.285E+02   -.176E+01 -.241E+01 -.434E+01   0.590E-03 0.732E-03 0.134E-02
   -.142E+02 -.121E+02 -.242E+02   0.160E+02 0.145E+02 0.285E+02   -.176E+01 -.241E+01 -.434E+01   0.590E-03 0.732E-03 0.134E-02
   0.195E+02 0.118E+02 0.260E+02   -.218E+02 -.144E+02 -.310E+02   0.230E+01 0.267E+01 0.497E+01   0.312E-03 0.691E-03 0.116E-02
   0.195E+02 0.118E+02 0.260E+02   -.218E+02 -.144E+02 -.310E+02   0.230E+01 0.267E+01 0.497E+01   0.312E-03 0.691E-03 0.116E-02
   0.195E+02 0.118E+02 0.260E+02   -.218E+02 -.144E+02 -.310E+02   0.230E+01 0.267E+01 0.497E+01   0.312E-03 0.691E-03 0.116E-02
   0.195E+02 0.118E+02 0.260E+02   -.218E+02 -.144E+02 -.310E+02   0.230E+01 0.267E+01 0.497E+01   0.312E-03 0.691E-03 0.116E-02
   0.195E+02 0.118E+02 0.260E+02   -.218E+02 -.144E+02 -.310E+02   0.230E+01 0.267E+01 0.497E+01   0.312E-03 0.691E-03 0.116E-02
   0.195E+02 0.118E+02 0.260E+02   -.218E+02 -.144E+02 -.310E+02   0.230E+01 0.267E+01 0.497E+01   0.312E-03 0.691E-03 0.116E-02
   0.195E+02 0.118E+02 0.260E+02   -.218E+02 -.144E+02 -.310E+02   0.230E+01 0.267E+01 0.497E+01   0.312E-03 0.691E-03 0.116E-02
   0.195E+02 0.118E+02 0.260E+02   -.218E+02 -.144E+02 -.310E+02   0.230E+01 0.267E+01 0.497E+01   0.312E-03 0.691E-03 0.116E-02
   -.611E+01 -.807E+01 -.146E+02   -.121E-12 0.746E-13 0.504E-12   0.607E+01 0.807E+01 0.146E+02   0.683E-02 0.906E-02 0.164E-01

 POSITION                                       TOTAL-FORCE (eV/Angst)
      2.49502      3.73294      6.61625        -0.000111      0.000702      0.000985
      2.45865      3.78449     11.82679        -0.000111      0.000702      0.000985
      3.81967      8.28807      8.77259        -0.000111      0.000702      0.000985
      3.78330      8.33962     13.98313        -0.000111      0.000702      0.000985
      7.10352      3.75676      8.70503        -0.000111      0.000702      0.000985
      7.06715      3.80831     13.91557        -0.000111      0.000702      0.000985
      8.42817      8.31190     10.86137        -0.000111      0.000702      0.000985
      8.39180      8.36344     16.07191        -0.000111      0.000702      0.000985
      4.75118      3.69172      5.05349        -0.000012     -0.000400     -0.000141
      4.71482      3.74327     10.26404        -0.000012     -0.000400     -0.000141
      6.07584      8.24686      7.20983        -0.000012     -0.000400     -0.000141
      6.03947      8.29840     12.42037        -0.000012     -0.000400     -0.000141
      9.35969      3.71555      7.14227        -0.000012     -0.000400     -0.000141
      9.32332      3.76710     12.35281        -0.000012     -0.000400     -0.000141
     10.68434      8.27068      9.29861        -0.000012     -0.000400     -0.000141
     10.64797      8.32223     14.50915        -0.000012     -0.000400     -0.000141
      4.08864      1.49938      6.54028         0.000109     -0.000003     -0.000411
      4.05227      1.55092     11.75082         0.000109     -0.000003     -0.000411
      5.41329      6.05451      8.69662         0.000109     -0.000003     -0.000411
      5.37693      6.10606     13.90716         0.000109     -0.000003     -0.000411
      8.69714      1.52320      8.62906         0.000109     -0.000003     -0.000411
      8.66078      1.57475     13.83960         0.000109     -0.000003     -0.000411
     10.02179      6.07833     10.78540         0.000109     -0.000003     -0.000411
      9.98543      6.12988     15.99594         0.000109     -0.000003     -0.000411
      3.40089      0.90006      2.84269         0.000047     -0.000007      0.000010
      3.36453      0.95160      8.05324         0.000047     -0.000007      0.000010
      4.72555      5.45519      4.99903         0.000047     -0.000007      0.000010
      4.68918      5.50674     10.20958         0.000047     -0.000007      0.000010
      8.00940      0.92388      4.93147         0.000047     -0.000007      0.000010
      7.97303      0.97543     10.14201         0.000047     -0.000007      0.000010
      9.33405      5.47901      7.08781         0.000047     -0.000007      0.000010
      9.29768      5.53056     12.29835         0.000047     -0.000007      0.000010
      1.14780      0.93006      4.41449        -0.000059      0.000292     -0.000130
      1.11144      0.98161      9.62503        -0.000059      0.000292     -0.000130
      2.47246      5.48520      6.57083        -0.000059      0.000292     -0.000130
      2.43609      5.53674     11.78137        -0.000059      0.000292     -0.000130
      5.75631      0.95389      6.50326        -0.000059      0.000292     -0.000130
      5.71994      1.00543     11.71381        -0.000059      0.000292     -0.000130
      7.08096      5.50902      8.65960        -0.000059      0.000292     -0.000130
      7.04459      5.56057     13.87015        -0.000059      0.000292     -0.000130
      1.81674      3.14356      2.91336        -0.000200     -0.000175      0.000187
      1.78037      3.19511      8.12390        -0.000200     -0.000175      0.000187
      3.14139      7.69869      5.06970        -0.000200     -0.000175      0.000187
      3.10503      7.75024     10.28024        -0.000200     -0.000175      0.000187
      6.42524      3.16739      5.00213        -0.000200     -0.000175      0.000187
      6.38888      3.21893     10.21268        -0.000200     -0.000175      0.000187
      7.74989      7.72252      7.15847        -0.000200     -0.000175      0.000187
      7.71353      7.77406     12.36901        -0.000200     -0.000175      0.000187
      5.84949      4.59692      7.72716         0.000237     -0.000570     -0.000380
      5.81312      4.64846     12.93770         0.000237     -0.000570     -0.000380
      7.17414      9.15205      9.88350         0.000237     -0.000570     -0.000380
      7.13778      9.20359     15.09404         0.000237     -0.000570     -0.000380
     10.45799      4.62074      9.81593         0.000237     -0.000570     -0.000380
     10.42163      4.67229     15.02648         0.000237     -0.000570     -0.000380
     11.78264      9.17587     11.97227         0.000237     -0.000570     -0.000380
     11.74628      9.22742     17.18282         0.000237     -0.000570     -0.000380
      5.41141      3.14732      8.71023         0.000330     -0.000260     -0.000590
      5.37505      3.19887     13.92077         0.000330     -0.000260     -0.000590
      6.73606      7.70245     10.86657         0.000330     -0.000260     -0.000590
      6.69970      7.75400     16.07711         0.000330     -0.000260     -0.000590
[...]
      3.56200      2.91959     11.04314         0.000161     -0.000622     -0.000845
      4.92302      7.42317      7.98893         0.000161     -0.000622     -0.000845
      4.88666      7.47472     13.19947         0.000161     -0.000622     -0.000845
      8.20687      2.89187      7.92137         0.000161     -0.000622     -0.000845
      8.17051      2.94341     13.13191         0.000161     -0.000622     -0.000845
      9.53152      7.44700     10.07771         0.000161     -0.000622     -0.000845
      9.49516      7.49854     15.28825         0.000161     -0.000622     -0.000845
      2.25600      1.73244      3.55990        -0.001476     -0.000575     -0.001506
      2.21964      1.78399      8.77044        -0.001476     -0.000575     -0.001506
      3.58065      6.28757      5.71624        -0.001476     -0.000575     -0.001506
      3.54429      6.33912     10.92678        -0.001476     -0.000575     -0.001506
      6.86450      1.75627      5.64868        -0.001476     -0.000575     -0.001506
      6.82814      1.80781     10.85922        -0.001476     -0.000575     -0.001506
      8.18916      6.31140      7.80502        -0.001476     -0.000575     -0.001506
      8.15279      6.36294     13.01556        -0.001476     -0.000575     -0.001506
    total drift:                               -0.035026      0.004915     -0.008356

  FREE ENERGIE OF THE ION-ELECTRON SYSTEM (eV)
  free  energy   TOTEN  =      -877.39009195 eV

  energy  without entropy=     -877.39009195  energy(sigma->0) =     -877.39009195

 d Force = 0.3952948E-05[ 0.690E-06, 0.722E-05]  d Energy = 0.4009680E-05-0.567E-07
 d Force =-0.1495009E-01[-0.150E-01,-0.149E-01]  d Ewald  =-0.1571006E-01 0.760E-03

 reached required accuracy - stopping structural energy minimisation
 BZINTS: Fermi energy:    5.078729;  384.000000 electrons
         Band energy:-0.383736E+03;  BLOECHL correction:   -0.000000