 vasp.6.2.0 18Jan21 (build Feb 25 2021 07:51:20) complex
 executed on             LinuxPGI date 2022.05.18  08:00:07

 INCAR:
   ALGO = Fast
   PREC = Accurate
   EDIFF = 1E-6
   ENCUT = 700
   ISMEAR = -5
   IBRION = 2
   ISIF = 4
   LREAL = Auto
   LWAVE = False
   LCHARGE = False
   NSW = 300
   SIGMA = 0.05

 POTCAR:    PAW_PBE B 06Sep2000
 POTCAR:    PAW_PBE C 08Apr2002
 POTCAR:    PAW_PBE B 06Sep2000
   VRHFIN =B: s2p1

   TITEL  = PAW_PBE B 06Sep2000
   POMASS =   10.811; ZVAL   =    3.000    mass and valenz
   ENMAX  =  318.614; ENMIN  =  238.960 eV

 POTCAR:    PAW_PBE C 08Apr2002
   VRHFIN =C: s2p2

   TITEL  = PAW_PBE C 08Apr2002
   POMASS =   12.011; ZVAL   =    4.000    mass and valenz
   ENMAX  =  400.000; ENMIN  =  300.000 eV

 Optimization of the real space projectors (new method)

 maximal supplied QI-value         = 22.11
 optimisation between [QCUT,QGAM] = [ 13.49, 26.97] = [ 50.94,203.75] Ry
 Optimized for a Real-space Cutoff    1.14 Angstroem

   l    n(q)    QCUT    max X(q) W(low)/X(q) W(high)/X(q)  e(spline)
   0      9    13.487    53.033    0.17E-03    0.11E-03    0.20E-06
   0      9    13.487    34.740    0.17E-03    0.11E-03    0.20E-06
   1      9    13.487    30.949    0.61E-04    0.25E-04    0.11E-06
   1      9    13.487    19.518    0.55E-04    0.23E-04    0.10E-06
 Optimization of the real space projectors (new method)

 maximal supplied QI-value         = 25.13
 optimisation between [QCUT,QGAM] = [ 13.32, 26.89] = [ 49.69,202.52] Ry
 Optimized for a Real-space Cutoff    1.07 Angstroem

   l    n(q)    QCUT    max X(q) W(low)/X(q) W(high)/X(q)  e(spline)
   0      9    13.321   115.676    0.24E-03    0.18E-03    0.16E-06
   0      9    13.321    87.132    0.24E-03    0.18E-03    0.16E-06
   1      8    13.321     4.429    0.20E-03    0.27E-03    0.12E-06
   1      8    13.321     2.733    0.16E-03    0.21E-03    0.12E-06
  PAW_PBE B 06Sep2000                   :
  PAW_PBE C 08Apr2002                   :

 POSCAR: B96 C16
  positions in direct lattice
 exchange correlation table for  LEXCH =        8
   RHO(1)=    0.500       N(1)  =     2000
   RHO(2)=  100.500       N(2)  =     4000

 ion  position               nearest neighbor table
   1  0.160  0.401  0.401-  97 1.45  59 1.70  35 1.78  76 1.81  42 1.82  66 1.89
   2  0.160  0.401  0.901-  98 1.45  60 1.70  36 1.78  75 1.81  41 1.82  65 1.89
   3  0.160  0.901  0.401-  99 1.45  57 1.70  33 1.78  74 1.81  44 1.82  68 1.89
   4  0.160  0.901  0.901- 100 1.45  58 1.70  34 1.78  73 1.81  43 1.82  67 1.89
   5  0.660  0.401  0.401- 101 1.45  63 1.70  39 1.78  80 1.81  46 1.82  70 1.89
   6  0.660  0.401  0.901- 102 1.45  64 1.70  40 1.78  79 1.81  45 1.82  69 1.89
   7  0.660  0.901  0.401- 103 1.45  61 1.70  37 1.78  78 1.81  48 1.82  72 1.89
   8  0.660  0.901  0.901- 104 1.45  62 1.70  38 1.78  77 1.81  47 1.82  71 1.89
   9  0.401  0.401  0.160-  97 1.63  45 1.70  69 1.76  51 1.77  27 1.78  87 1.87
  10  0.401  0.401  0.660-  98 1.63  46 1.70  70 1.76  52 1.77  28 1.78  88 1.87
  11  0.401  0.901  0.160-  99 1.63  47 1.70  71 1.76  49 1.77  25 1.78  85 1.87
  12  0.401  0.901  0.660- 100 1.63  48 1.70  72 1.76  50 1.77  26 1.78  86 1.87
  13  0.901  0.401  0.160- 101 1.63  41 1.70  65 1.76  55 1.77  31 1.78  83 1.87
  14  0.901  0.401  0.660- 102 1.63  42 1.70  66 1.76  56 1.77  32 1.78  84 1.87
  15  0.901  0.901  0.160- 103 1.63  43 1.70  67 1.76  53 1.77  29 1.78  81 1.87
  16  0.901  0.901  0.660- 104 1.63  44 1.70  68 1.76  54 1.77  30 1.78  82 1.87
  17  0.401  0.160  0.401-  97 1.49  37 1.70  61 1.74  94 1.78  26 1.82  50 1.94
  18  0.401  0.160  0.901-  98 1.49  38 1.70  62 1.74  93 1.78  25 1.82  49 1.94
  19  0.401  0.660  0.401-  99 1.49  39 1.70  63 1.74  96 1.78  28 1.82  52 1.94
  20  0.401  0.660  0.901- 100 1.49  40 1.70  64 1.74  95 1.78  27 1.82  51 1.94
  21  0.901  0.160  0.401- 101 1.49  33 1.70  57 1.74  90 1.78  30 1.82  54 1.94
  22  0.901  0.160  0.901- 102 1.49  34 1.70  58 1.74  89 1.78  29 1.82  53 1.94
  23  0.901  0.660  0.401- 103 1.49  35 1.70  59 1.74  92 1.78  32 1.82  56 1.94
  24  0.901  0.660  0.901- 104 1.49  36 1.70  60 1.74  91 1.78  31 1.82  55 1.94
  25  0.340  0.099  0.099- 105 1.45  85 1.70  11 1.78  49 1.81  18 1.82  93 1.89
  26  0.340  0.099  0.599- 106 1.45  86 1.70  12 1.78  50 1.81  17 1.82  94 1.89
  27  0.340  0.599  0.099- 107 1.45  87 1.70   9 1.78  51 1.81  20 1.82  95 1.89
  28  0.340  0.599  0.599- 108 1.45  88 1.70  10 1.78  52 1.81  19 1.82  96 1.89
  29  0.840  0.099  0.099- 109 1.45  81 1.70  15 1.78  53 1.81  22 1.82  89 1.89
  30  0.840  0.099  0.599- 110 1.45  82 1.70  16 1.78  54 1.81  21 1.82  90 1.89
  31  0.840  0.599  0.099- 111 1.45  83 1.70  13 1.78  55 1.81  24 1.82  91 1.89
  32  0.840  0.599  0.599- 112 1.45  84 1.70  14 1.78  56 1.81  23 1.82  92 1.89
  33  0.099  0.099  0.340- 105 1.63  21 1.70  90 1.76  74 1.77   3 1.78  57 1.87
  34  0.099  0.099  0.840- 106 1.63  22 1.70  89 1.76  73 1.77   4 1.78  58 1.87
  35  0.099  0.599  0.340- 107 1.63  23 1.70  92 1.76  76 1.77   1 1.78  59 1.87
  36  0.099  0.599  0.840- 108 1.63  24 1.70  91 1.76  75 1.77   2 1.78  60 1.87
  37  0.599  0.099  0.340- 109 1.63  17 1.70  94 1.76  78 1.77   7 1.78  61 1.87
  38  0.599  0.099  0.840- 110 1.63  18 1.70  93 1.76  77 1.77   8 1.78  62 1.87
  39  0.599  0.599  0.340- 111 1.63  19 1.70  96 1.76  80 1.77   5 1.78  63 1.87
  40  0.599  0.599  0.840- 112 1.63  20 1.70  95 1.76  79 1.77   6 1.78  64 1.87
  41  0.099  0.340  0.099- 105 1.49  13 1.70  83 1.74  65 1.78   2 1.82  75 1.94
  42  0.099  0.340  0.599- 106 1.49  14 1.70  84 1.74  66 1.78   1 1.82  76 1.94
  43  0.099  0.840  0.099- 107 1.49  15 1.70  81 1.74  67 1.78   4 1.82  73 1.94
  44  0.099  0.840  0.599- 108 1.49  16 1.70  82 1.74  68 1.78   3 1.82  74 1.94
  45  0.599  0.340  0.099- 109 1.49   9 1.70  87 1.74  69 1.78   6 1.82  79 1.94
  46  0.599  0.340  0.599- 110 1.49  10 1.70  88 1.74  70 1.78   5 1.82  80 1.94
  47  0.599  0.840  0.099- 111 1.49  11 1.70  85 1.74  71 1.78   8 1.82  77 1.94
  48  0.599  0.840  0.599- 112 1.49  12 1.70  86 1.74  72 1.78   7 1.82  78 1.94
  49  0.332  0.000  0.000-  73 1.71  71 1.72  11 1.77  25 1.81  62 1.87  18 1.94
  50  0.332  0.000  0.500-  74 1.71  72 1.72  12 1.77  26 1.81  61 1.87  17 1.94
  51  0.332  0.500  0.000-  75 1.71  69 1.72   9 1.77  27 1.81  64 1.87  20 1.94
  52  0.332  0.500  0.500-  76 1.71  70 1.72  10 1.77  28 1.81  63 1.87  19 1.94
  53  0.832  0.000  0.000-  77 1.71  67 1.72  15 1.77  29 1.81  58 1.87  22 1.94
  54  0.832  0.000  0.500-  78 1.71  68 1.72  16 1.77  30 1.81  57 1.87  21 1.94
  55  0.832  0.500  0.000-  79 1.71  65 1.72  13 1.77  31 1.81  60 1.87  24 1.94
  56  0.832  0.500  0.500-  80 1.71  66 1.72  14 1.77  32 1.81  59 1.87  23 1.94
  57  0.000  0.000  0.332-   3 1.70  81 1.71  21 1.74  54 1.87  33 1.87  68 1.92
  58  0.000  0.000  0.832-   4 1.70  82 1.71  22 1.74  53 1.87  34 1.87  67 1.92
  59  0.000  0.500  0.332-   1 1.70  83 1.71  23 1.74  56 1.87  35 1.87  66 1.92
  60  0.000  0.500  0.832-   2 1.70  84 1.71  24 1.74  55 1.87  36 1.87  65 1.92
[...]
  98  0.315  0.315  0.815-   2 1.45  18 1.49  10 1.63
  99  0.315  0.815  0.315-   3 1.45  19 1.49  11 1.63
 100  0.315  0.815  0.815-   4 1.45  20 1.49  12 1.63
 101  0.815  0.315  0.315-   5 1.45  21 1.49  13 1.63
 102  0.815  0.315  0.815-   6 1.45  22 1.49  14 1.63
 103  0.815  0.815  0.315-   7 1.45  23 1.49  15 1.63
 104  0.815  0.815  0.815-   8 1.45  24 1.49  16 1.63
 105  0.185  0.185  0.185-  25 1.45  41 1.49  33 1.63
 106  0.185  0.185  0.685-  26 1.45  42 1.49  34 1.63
 107  0.185  0.685  0.185-  27 1.45  43 1.49  35 1.63
 108  0.185  0.685  0.685-  28 1.45  44 1.49  36 1.63
 109  0.685  0.185  0.185-  29 1.45  45 1.49  37 1.63
 110  0.685  0.185  0.685-  30 1.45  46 1.49  38 1.63
 111  0.685  0.685  0.185-  31 1.45  47 1.49  39 1.63
 112  0.685  0.685  0.685-  32 1.45  48 1.49  40 1.63

  Warning from LATTYP: Got some problem with cell dimensions!
  Tried to take original basis but could not verify dimensions!
  LATTYP: Found a triclinic cell.
 ALAT       =    18.0386176002
 B/A-ratio  =     0.5672995159
 C/A-ratio  =     0.5744783696
 COS(alpha) =     0.0005909945
 COS(beta)  =     0.3305205635
 COS(gamma) =     0.8300680818

  Lattice vectors:

 A1 = (  14.5276600000,  -8.8133900000,  -6.0549960000)
 A2 = (   5.2004390000,  -8.8133900000,  -0.0000010000)
 A3 = (  -0.1093550000,  -0.0716360000, -10.3619710000)

Analysis of symmetry for initial positions (statically):
 Subroutine PRICEL returns following result:

[...]

   8 primitive cells build up your supercell.

 Routine SETGRP: Setting up the symmetry group for a
 triclinic supercell.

 Subroutine GETGRP returns: Found  2 space group operations
 (whereof  2 operations were pure point group operations)
 out of a pool of  2 trial point group operations.

The static configuration has the point symmetry S_2 .

Analysis of symmetry for dynamics (positions and initial velocities):
 Subroutine PRICEL returns following result:

  Warning from LATTYP: Got some problem with cell dimensions!
  Tried to take original basis but could not verify dimensions!
  LATTYP: Found a triclinic cell.
 ALAT       =     9.0193088001
 B/A-ratio  =     0.5672995159
 C/A-ratio  =     0.5744783696
 COS(alpha) =     0.0005909945
 COS(beta)  =     0.3305205635
 COS(gamma) =     0.8300680818

  Lattice vectors:

 A1 = (   7.2638300000,  -4.4066950000,  -3.0274980000)
 A2 = (   2.6002195000,  -4.4066950000,  -0.0000005000)
 A3 = (  -0.0546775000,  -0.0358180000,  -5.1809855000)

   8 primitive cells build up your supercell.

 Routine SETGRP: Setting up the symmetry group for a
 triclinic supercell.

 Subroutine GETGRP returns: Found  2 space group operations
 (whereof  2 operations were pure point group operations)
 out of a pool of  2 trial point group operations.

The dynamic configuration has the point symmetry S_2 .

 Subroutine INISYM returns: Found  2 space group operations
 (whereof  2 operations are pure point group operations),
 and found     8 'primitive' translations

                                     Primitive cell

  volume of cell :     107.4864

  direct lattice vectors                    reciprocal lattice vectors
     7.263830000 -4.406695000 -3.027498000     0.212408422  0.125333957 -0.003108129
     2.600219500 -4.406695000 -0.000000500    -0.211399560 -0.351666104  0.004662197
    -0.054677500 -0.035818000 -5.180985500    -0.124120395 -0.073238601 -0.191197244

  length of vectors
     9.019308800  5.116649516  5.181397814     0.246648736  0.410342002  0.239428802

  position of ions in fractional coordinates (direct lattice)
     0.121820000  0.077150000  0.077150000
     0.602060000  0.596910000  0.077150000
     0.121820000  0.557390000  0.077150000
     0.878180000  0.922850000  0.922850000
     0.397940000  0.403090000  0.922850000
     0.878180000  0.442610000  0.922850000
     0.664816000  0.334954000  0.334954000
     0.000460000  0.999310000  0.334954000
     0.664816000  0.670598000  0.334954000
     0.335184000  0.665046000  0.665046000
     0.999540000  0.000690000  0.665046000
     0.335184000  0.329402000  0.665046000
     0.261588000  0.107618000  0.107618000
[...]
   -.698E+01 0.168E+02 0.202E+02   0.882E+01 -.184E+02 -.214E+02   -.183E+01 0.154E+01 0.117E+01   0.112E-04 0.242E-04 -.111E-04
   -.698E+01 0.168E+02 0.202E+02   0.882E+01 -.184E+02 -.214E+02   -.183E+01 0.154E+01 0.117E+01   0.112E-04 0.242E-04 -.111E-04
   0.231E+02 0.144E+02 0.600E+00   -.250E+02 -.156E+02 0.702E+00   0.197E+01 0.123E+01 -.131E+01   0.815E-05 -.499E-05 0.117E-05
   0.231E+02 0.144E+02 0.600E+00   -.250E+02 -.156E+02 0.702E+00   0.197E+01 0.123E+01 -.131E+01   0.815E-05 -.499E-05 0.117E-05
   0.231E+02 0.144E+02 0.600E+00   -.250E+02 -.156E+02 0.702E+00   0.197E+01 0.123E+01 -.131E+01   0.815E-05 -.499E-05 0.117E-05
   0.231E+02 0.144E+02 0.600E+00   -.250E+02 -.156E+02 0.702E+00   0.197E+01 0.123E+01 -.131E+01   0.815E-05 -.499E-05 0.117E-05
   0.231E+02 0.144E+02 0.600E+00   -.250E+02 -.156E+02 0.702E+00   0.197E+01 0.123E+01 -.131E+01   0.815E-05 -.499E-05 0.117E-05
   0.231E+02 0.144E+02 0.600E+00   -.250E+02 -.156E+02 0.702E+00   0.197E+01 0.123E+01 -.131E+01   0.815E-05 -.499E-05 0.117E-05
   0.231E+02 0.144E+02 0.600E+00   -.250E+02 -.156E+02 0.702E+00   0.197E+01 0.123E+01 -.131E+01   0.815E-05 -.499E-05 0.117E-05
   0.231E+02 0.144E+02 0.600E+00   -.250E+02 -.156E+02 0.702E+00   0.197E+01 0.123E+01 -.131E+01   0.815E-05 -.499E-05 0.117E-05
   0.121E+02 -.136E+02 0.203E+02   -.127E+02 0.159E+02 -.215E+02   0.578E+00 -.232E+01 0.117E+01   0.298E-04 -.113E-04 -.226E-04
   0.121E+02 -.136E+02 0.203E+02   -.127E+02 0.159E+02 -.215E+02   0.578E+00 -.232E+01 0.117E+01   0.298E-04 -.113E-04 -.226E-04
   0.121E+02 -.136E+02 0.203E+02   -.127E+02 0.159E+02 -.215E+02   0.578E+00 -.232E+01 0.117E+01   0.298E-04 -.113E-04 -.226E-04
   0.121E+02 -.136E+02 0.203E+02   -.127E+02 0.159E+02 -.215E+02   0.578E+00 -.232E+01 0.117E+01   0.298E-04 -.113E-04 -.226E-04
   0.121E+02 -.136E+02 0.203E+02   -.127E+02 0.159E+02 -.215E+02   0.578E+00 -.232E+01 0.117E+01   0.298E-04 -.113E-04 -.226E-04
   0.121E+02 -.136E+02 0.203E+02   -.127E+02 0.159E+02 -.215E+02   0.578E+00 -.232E+01 0.117E+01   0.298E-04 -.113E-04 -.226E-04
   0.121E+02 -.136E+02 0.203E+02   -.127E+02 0.159E+02 -.215E+02   0.578E+00 -.232E+01 0.117E+01   0.298E-04 -.113E-04 -.226E-04
   0.121E+02 -.136E+02 0.203E+02   -.127E+02 0.159E+02 -.215E+02   0.578E+00 -.232E+01 0.117E+01   0.298E-04 -.113E-04 -.226E-04
   0.698E+01 -.168E+02 -.202E+02   -.882E+01 0.184E+02 0.214E+02   0.183E+01 -.154E+01 -.117E+01   -.112E-04 -.242E-04 0.111E-04
   0.698E+01 -.168E+02 -.202E+02   -.882E+01 0.184E+02 0.214E+02   0.183E+01 -.154E+01 -.117E+01   -.112E-04 -.242E-04 0.111E-04
   0.698E+01 -.168E+02 -.202E+02   -.882E+01 0.184E+02 0.214E+02   0.183E+01 -.154E+01 -.117E+01   -.112E-04 -.242E-04 0.111E-04
   0.698E+01 -.168E+02 -.202E+02   -.882E+01 0.184E+02 0.214E+02   0.183E+01 -.154E+01 -.117E+01   -.112E-04 -.242E-04 0.111E-04
   0.698E+01 -.168E+02 -.202E+02   -.882E+01 0.184E+02 0.214E+02   0.183E+01 -.154E+01 -.117E+01   -.112E-04 -.242E-04 0.111E-04
   0.698E+01 -.168E+02 -.202E+02   -.882E+01 0.184E+02 0.214E+02   0.183E+01 -.154E+01 -.117E+01   -.112E-04 -.242E-04 0.111E-04
   0.698E+01 -.168E+02 -.202E+02   -.882E+01 0.184E+02 0.214E+02   0.183E+01 -.154E+01 -.117E+01   -.112E-04 -.242E-04 0.111E-04
   0.698E+01 -.168E+02 -.202E+02   -.882E+01 0.184E+02 0.214E+02   0.183E+01 -.154E+01 -.117E+01   -.112E-04 -.242E-04 0.111E-04
   -.231E+02 -.144E+02 -.600E+00   0.250E+02 0.156E+02 -.702E+00   -.197E+01 -.123E+01 0.131E+01   -.815E-05 0.499E-05 -.117E-05
   -.231E+02 -.144E+02 -.600E+00   0.250E+02 0.156E+02 -.702E+00   -.197E+01 -.123E+01 0.131E+01   -.815E-05 0.499E-05 -.117E-05
   -.231E+02 -.144E+02 -.600E+00   0.250E+02 0.156E+02 -.702E+00   -.197E+01 -.123E+01 0.131E+01   -.815E-05 0.499E-05 -.117E-05
   -.231E+02 -.144E+02 -.600E+00   0.250E+02 0.156E+02 -.702E+00   -.197E+01 -.123E+01 0.131E+01   -.815E-05 0.499E-05 -.117E-05
   -.231E+02 -.144E+02 -.600E+00   0.250E+02 0.156E+02 -.702E+00   -.197E+01 -.123E+01 0.131E+01   -.815E-05 0.499E-05 -.117E-05
   -.231E+02 -.144E+02 -.600E+00   0.250E+02 0.156E+02 -.702E+00   -.197E+01 -.123E+01 0.131E+01   -.815E-05 0.499E-05 -.117E-05
   -.231E+02 -.144E+02 -.600E+00   0.250E+02 0.156E+02 -.702E+00   -.197E+01 -.123E+01 0.131E+01   -.815E-05 0.499E-05 -.117E-05
   -.231E+02 -.144E+02 -.600E+00   0.250E+02 0.156E+02 -.702E+00   -.197E+01 -.123E+01 0.131E+01   -.815E-05 0.499E-05 -.117E-05
   -.121E+02 0.136E+02 -.203E+02   0.127E+02 -.159E+02 0.215E+02   -.578E+00 0.232E+01 -.117E+01   -.298E-04 0.113E-04 0.226E-04
   -.121E+02 0.136E+02 -.203E+02   0.127E+02 -.159E+02 0.215E+02   -.578E+00 0.232E+01 -.117E+01   -.298E-04 0.113E-04 0.226E-04
   -.121E+02 0.136E+02 -.203E+02   0.127E+02 -.159E+02 0.215E+02   -.578E+00 0.232E+01 -.117E+01   -.298E-04 0.113E-04 0.226E-04
   -.121E+02 0.136E+02 -.203E+02   0.127E+02 -.159E+02 0.215E+02   -.578E+00 0.232E+01 -.117E+01   -.298E-04 0.113E-04 0.226E-04
   -.121E+02 0.136E+02 -.203E+02   0.127E+02 -.159E+02 0.215E+02   -.578E+00 0.232E+01 -.117E+01   -.298E-04 0.113E-04 0.226E-04
   -.121E+02 0.136E+02 -.203E+02   0.127E+02 -.159E+02 0.215E+02   -.578E+00 0.232E+01 -.117E+01   -.298E-04 0.113E-04 0.226E-04
   -.121E+02 0.136E+02 -.203E+02   0.127E+02 -.159E+02 0.215E+02   -.578E+00 0.232E+01 -.117E+01   -.298E-04 0.113E-04 0.226E-04
   -.121E+02 0.136E+02 -.203E+02   0.127E+02 -.159E+02 0.215E+02   -.578E+00 0.232E+01 -.117E+01   -.298E-04 0.113E-04 0.226E-04
   0.379E+02 0.362E+01 0.265E+02   -.425E+02 -.333E+01 -.287E+02   0.461E+01 -.296E+00 0.216E+01   0.234E-05 -.393E-05 0.365E-05
   0.379E+02 0.362E+01 0.265E+02   -.425E+02 -.333E+01 -.287E+02   0.461E+01 -.296E+00 0.216E+01   0.234E-05 -.393E-05 0.365E-05
   0.379E+02 0.362E+01 0.265E+02   -.425E+02 -.333E+01 -.287E+02   0.461E+01 -.296E+00 0.216E+01   0.234E-05 -.393E-05 0.365E-05
   0.379E+02 0.362E+01 0.265E+02   -.425E+02 -.333E+01 -.287E+02   0.461E+01 -.296E+00 0.216E+01   0.234E-05 -.393E-05 0.365E-05
   0.379E+02 0.362E+01 0.265E+02   -.425E+02 -.333E+01 -.287E+02   0.461E+01 -.296E+00 0.216E+01   0.234E-05 -.393E-05 0.365E-05
   0.379E+02 0.362E+01 0.265E+02   -.425E+02 -.333E+01 -.287E+02   0.461E+01 -.296E+00 0.216E+01   0.234E-05 -.393E-05 0.365E-05
   0.379E+02 0.362E+01 0.265E+02   -.425E+02 -.333E+01 -.287E+02   0.461E+01 -.296E+00 0.216E+01   0.234E-05 -.393E-05 0.365E-05
   0.379E+02 0.362E+01 0.265E+02   -.425E+02 -.333E+01 -.287E+02   0.461E+01 -.296E+00 0.216E+01   0.234E-05 -.393E-05 0.365E-05
   0.949E+01 0.592E+01 0.450E+02   -.959E+01 -.599E+01 -.501E+02   0.984E-01 0.667E-01 0.509E+01   0.743E-06 0.141E-04 -.396E-05
   0.949E+01 0.592E+01 0.450E+02   -.959E+01 -.599E+01 -.501E+02   0.984E-01 0.667E-01 0.509E+01   0.743E-06 0.141E-04 -.396E-05
   0.949E+01 0.592E+01 0.450E+02   -.959E+01 -.599E+01 -.501E+02   0.984E-01 0.667E-01 0.509E+01   0.743E-06 0.141E-04 -.396E-05
   0.949E+01 0.592E+01 0.450E+02   -.959E+01 -.599E+01 -.501E+02   0.984E-01 0.667E-01 0.509E+01   0.743E-06 0.141E-04 -.396E-05
[...]
   0.165E+02 0.103E+02 0.240E+02   -.169E+02 -.105E+02 -.246E+02   0.419E+00 0.265E+00 0.619E+00   0.193E-04 0.715E-05 -.215E-04
   0.165E+02 0.103E+02 0.240E+02   -.169E+02 -.105E+02 -.246E+02   0.419E+00 0.265E+00 0.619E+00   0.193E-04 0.715E-05 -.215E-04
   0.165E+02 0.103E+02 0.240E+02   -.169E+02 -.105E+02 -.246E+02   0.419E+00 0.265E+00 0.619E+00   0.193E-04 0.715E-05 -.215E-04
   0.165E+02 0.103E+02 0.240E+02   -.169E+02 -.105E+02 -.246E+02   0.419E+00 0.265E+00 0.619E+00   0.193E-04 0.715E-05 -.215E-04
   0.165E+02 0.103E+02 0.240E+02   -.169E+02 -.105E+02 -.246E+02   0.419E+00 0.265E+00 0.619E+00   0.193E-04 0.715E-05 -.215E-04
   0.165E+02 0.103E+02 0.240E+02   -.169E+02 -.105E+02 -.246E+02   0.419E+00 0.265E+00 0.619E+00   0.193E-04 0.715E-05 -.215E-04
   -.165E+02 -.103E+02 -.240E+02   0.169E+02 0.105E+02 0.246E+02   -.419E+00 -.265E+00 -.619E+00   -.193E-04 -.715E-05 0.215E-04
   -.165E+02 -.103E+02 -.240E+02   0.169E+02 0.105E+02 0.246E+02   -.419E+00 -.265E+00 -.619E+00   -.193E-04 -.715E-05 0.215E-04
   -.165E+02 -.103E+02 -.240E+02   0.169E+02 0.105E+02 0.246E+02   -.419E+00 -.265E+00 -.619E+00   -.193E-04 -.715E-05 0.215E-04
   -.165E+02 -.103E+02 -.240E+02   0.169E+02 0.105E+02 0.246E+02   -.419E+00 -.265E+00 -.619E+00   -.193E-04 -.715E-05 0.215E-04
   -.165E+02 -.103E+02 -.240E+02   0.169E+02 0.105E+02 0.246E+02   -.419E+00 -.265E+00 -.619E+00   -.193E-04 -.715E-05 0.215E-04
   -.165E+02 -.103E+02 -.240E+02   0.169E+02 0.105E+02 0.246E+02   -.419E+00 -.265E+00 -.619E+00   -.193E-04 -.715E-05 0.215E-04
   -.165E+02 -.103E+02 -.240E+02   0.169E+02 0.105E+02 0.246E+02   -.419E+00 -.265E+00 -.619E+00   -.193E-04 -.715E-05 0.215E-04
   -.165E+02 -.103E+02 -.240E+02   0.169E+02 0.105E+02 0.246E+02   -.419E+00 -.265E+00 -.619E+00   -.193E-04 -.715E-05 0.215E-04
   -.150E-10 -.216E-10 -.380E-11   -.142E-12 0.853E-13 -.107E-12   -.263E-13 0.705E-14 -.214E-13   0.110E-10 0.110E-10 0.320E-11

 POSITION                                       TOTAL-FORCE (eV/Angst)
      2.94348      3.40899      6.54046         0.004487     -0.001226     -0.003918
      2.99695      3.44428     11.70024         0.004487     -0.001226     -0.003918
      4.69346      7.76563      8.68940         0.004487     -0.001226     -0.003918
      4.74693      7.80093     13.84918         0.004487     -0.001226     -0.003918
      7.62370      3.07235      8.68859         0.004487     -0.001226     -0.003918
      7.67717      3.10765     13.84837         0.004487     -0.001226     -0.003918
      9.37368      7.42900     10.83753         0.004487     -0.001226     -0.003918
      9.42715      7.46429     15.99731         0.004487     -0.001226     -0.003918
      5.16609      3.23036      5.09436         0.005706      0.001418     -0.005460
      5.21955      3.26566     10.25414         0.005706      0.001418     -0.005460
      6.91607      7.58701      7.24330         0.005706      0.001418     -0.005460
      6.96953      7.62230     12.40308         0.005706      0.001418     -0.005460
      9.84630      2.89373      7.24248         0.005706      0.001418     -0.005460
      9.89977      2.92902     12.40226         0.005706      0.001418     -0.005460
     11.59628      7.25037      9.39142         0.005706      0.001418     -0.005460
     11.64975      7.28567     14.55120         0.005706      0.001418     -0.005460
      4.35065      1.15400      6.53954         0.004742      0.002375     -0.002232
      4.40411      1.18929     11.69932         0.004742      0.002375     -0.002232
      6.10063      5.51064      8.68848         0.004742      0.002375     -0.002232
      6.15410      5.54594     13.84826         0.004742      0.002375     -0.002232
      9.03087      0.81736      8.68767         0.004742      0.002375     -0.002232
      9.08433      0.85266     13.84745         0.004742      0.002375     -0.002232
     10.78085      5.17401     10.83661         0.004742      0.002375     -0.002232
     10.83431      5.20930     15.99639         0.004742      0.002375     -0.002232
      3.54018      0.64632      2.91638        -0.004487      0.001226      0.003918
      3.59364      0.68162      8.07616        -0.004487      0.001226      0.003918
      5.29016      5.00296      5.06532        -0.004487      0.001226      0.003918
      5.34363      5.03826     10.22510        -0.004487      0.001226      0.003918
      8.22040      0.30969      5.06451        -0.004487      0.001226      0.003918
      8.27386      0.34498     10.22429        -0.004487      0.001226      0.003918
      9.97038      4.66633      7.21345        -0.004487      0.001226      0.003918
     10.02384      4.70163     12.37323        -0.004487      0.001226      0.003918
      1.31758      0.82494      4.36249        -0.005706     -0.001418      0.005460
      1.37104      0.86024      9.52227        -0.005706     -0.001418      0.005460
      3.06756      5.18159      6.51143        -0.005706     -0.001418      0.005460
      3.12102      5.21689     11.67121        -0.005706     -0.001418      0.005460
      5.99779      0.48831      6.51062        -0.005706     -0.001418      0.005460
      6.05126      0.52361     11.67039        -0.005706     -0.001418      0.005460
      7.74777      4.84495      8.65956        -0.005706     -0.001418      0.005460
      7.80124      4.88025     13.81933        -0.005706     -0.001418      0.005460
      2.13301      2.90131      2.91730        -0.004742     -0.002375      0.002232
      2.18648      2.93661      8.07708        -0.004742     -0.002375      0.002232
      3.88299      7.25795      5.06624        -0.004742     -0.002375      0.002232
      3.93646      7.29325     10.22602        -0.004742     -0.002375      0.002232
      6.81323      2.56467      5.06543        -0.004742     -0.002375      0.002232
      6.86670      2.59997     10.22521        -0.004742     -0.002375      0.002232
      8.56321      6.92132      7.21437        -0.004742     -0.002375      0.002232
      8.61668      6.95661     12.37415        -0.004742     -0.002375      0.002232
      3.10988     -0.22141      1.43086         0.000128      0.000525     -0.001452
      3.16335     -0.18611      6.59064         0.000128      0.000525     -0.001452
      4.85986      4.13523      3.57980         0.000128      0.000525     -0.001452
      4.91333      4.17053      8.73958         0.000128      0.000525     -0.001452
      7.79010     -0.55805      3.57899         0.000128      0.000525     -0.001452
      7.84357     -0.52275      8.73877         0.000128      0.000525     -0.001452
      9.54008      3.79860      5.72793         0.000128      0.000525     -0.001452
      9.59355      3.83390     10.88771         0.000128      0.000525     -0.001452
      0.03840      0.02531      3.42997         0.000119     -0.000025      0.000277
      0.09186      0.06061      8.58975         0.000119     -0.000025      0.000277
      1.78838      4.38195      5.57891         0.000119     -0.000025      0.000277
      1.84185      4.41725     10.73869         0.000119     -0.000025      0.000277
[...]
      4.14017      2.59133     11.12059        -0.006594      0.000060      0.003188
      5.83669      6.91268      8.10975        -0.006594      0.000060      0.003188
      5.89015      6.94797     13.26953        -0.006594      0.000060      0.003188
      8.76692      2.21940      8.10894        -0.006594      0.000060      0.003188
      8.82039      2.25469     13.26871        -0.006594      0.000060      0.003188
     10.51690      6.57604     10.25788        -0.006594      0.000060      0.003188
     10.57037      6.61134     15.41765        -0.006594      0.000060      0.003188
      2.39696      1.49927      3.49604         0.006594     -0.000060     -0.003188
      2.45042      1.53457      8.65582         0.006594     -0.000060     -0.003188
      4.14694      5.85592      5.64498         0.006594     -0.000060     -0.003188
      4.20040      5.89122     10.80476         0.006594     -0.000060     -0.003188
      7.07717      1.16264      5.64416         0.006594     -0.000060     -0.003188
      7.13064      1.19794     10.80394         0.006594     -0.000060     -0.003188
      8.82715      5.51928      7.79310         0.006594     -0.000060     -0.003188
      8.88062      5.55458     12.95288         0.006594     -0.000060     -0.003188
    total drift:                               -0.000000     -0.000000     -0.000000

  FREE ENERGIE OF THE ION-ELECTRON SYSTEM (eV)
  free  energy   TOTEN  =      -793.89012539 eV

  energy  without entropy=     -793.89012539  energy(sigma->0) =     -793.89012539

 d Force = 0.3591391E-07[ 0.350E-07, 0.368E-07]  d Energy =-0.1196403E-05 0.123E-05
 d Force =-0.1221509E-03[-0.122E-03,-0.122E-03]  d Ewald  =-0.2394086E-03 0.117E-03

 reached required accuracy - stopping structural energy minimisation
|           W    W    AA    RRRRR   N    N  II  N    N   GGGG   !!!           |
|           W    W   A  A   R    R  NN   N  II  NN   N  G    G  !!!           |
|           W    W  A    A  R    R  N N  N  II  N N  N  G       !!!           |
|           W WW W  AAAAAA  RRRRR   N  N N  II  N  N N  G  GGG   !            |
|           WW  WW  A    A  R   R   N   NN  II  N   NN  G    G                |
|           W    W  A    A  R    R  N    N  II  N    N   GGGG   !!!           |
|     Tetrahedron method does not include variations of the Fermi             |
|     occupations, so forces and stress will be inaccurate. We suggest        |
|     using a different smearing scheme ISMEAR = 1 or 2 for metals in         |
|     relaxations.                                                            |

 BZINTS: Fermi energy:    4.162379;  352.000000 electrons
         Band energy:-0.494017E+03;  BLOECHL correction:   -0.129693