 vasp.6.2.0 18Jan21 (build Feb 25 2021 07:51:20) complex
 executed on             LinuxPGI date 2022.04.13  12:37:03

 INCAR:
   ALGO = Fast
   PREC = Accurate
   EDIFF = 1E-6
   ENCUT = 700
   ISMEAR = -5
   IBRION = 2
   ISIF = 4
   LREAL = Auto
   LWAVE = False
   LCHARGE = False
   NSW = 300
   SIGMA = 0.05

 POTCAR:    PAW_PBE B 06Sep2000
 POTCAR:    PAW_PBE C 08Apr2002
 POTCAR:    PAW_PBE B 06Sep2000
   VRHFIN =B: s2p1

   TITEL  = PAW_PBE B 06Sep2000
   POMASS =   10.811; ZVAL   =    3.000    mass and valenz
   ENMAX  =  318.614; ENMIN  =  238.960 eV

 POTCAR:    PAW_PBE C 08Apr2002
   VRHFIN =C: s2p2

   TITEL  = PAW_PBE C 08Apr2002
   POMASS =   12.011; ZVAL   =    4.000    mass and valenz
   ENMAX  =  400.000; ENMIN  =  300.000 eV

 Optimization of the real space projectors (new method)

 maximal supplied QI-value         = 22.11
 optimisation between [QCUT,QGAM] = [ 13.49, 26.97] = [ 50.94,203.75] Ry
 Optimized for a Real-space Cutoff    1.14 Angstroem

   l    n(q)    QCUT    max X(q) W(low)/X(q) W(high)/X(q)  e(spline)
   0      9    13.487    53.033    0.17E-03    0.11E-03    0.20E-06
   0      9    13.487    34.740    0.17E-03    0.11E-03    0.20E-06
   1      9    13.487    30.949    0.61E-04    0.25E-04    0.11E-06
   1      9    13.487    19.518    0.55E-04    0.23E-04    0.10E-06
 Optimization of the real space projectors (new method)

 maximal supplied QI-value         = 25.13
 optimisation between [QCUT,QGAM] = [ 13.32, 26.89] = [ 49.69,202.52] Ry
 Optimized for a Real-space Cutoff    1.07 Angstroem

   l    n(q)    QCUT    max X(q) W(low)/X(q) W(high)/X(q)  e(spline)
   0      9    13.321   115.676    0.24E-03    0.18E-03    0.16E-06
   0      9    13.321    87.132    0.24E-03    0.18E-03    0.16E-06
   1      8    13.321     4.429    0.20E-03    0.27E-03    0.12E-06
   1      8    13.321     2.733    0.16E-03    0.21E-03    0.12E-06
  PAW_PBE B 06Sep2000                   :
  PAW_PBE C 08Apr2002                   :

 POSCAR: B96 C24
  positions in direct lattice
 exchange correlation table for  LEXCH =        8
   RHO(1)=    0.500       N(1)  =     2000
   RHO(2)=  100.500       N(2)  =     4000

 ion  position               nearest neighbor table
   1  0.158  0.404  0.404- 105 1.59  42 1.73  35 1.73  53 1.78  61 1.78  68 1.79
   2  0.158  0.404  0.904- 106 1.59  41 1.73  36 1.73  54 1.78  62 1.78  67 1.79
   3  0.158  0.904  0.404- 107 1.59  44 1.73  33 1.73  55 1.78  63 1.78  66 1.79
   4  0.158  0.904  0.904- 108 1.59  43 1.73  34 1.73  56 1.78  64 1.78  65 1.79
   5  0.658  0.404  0.404- 109 1.59  46 1.73  39 1.73  49 1.78  57 1.78  72 1.79
   6  0.658  0.404  0.904- 110 1.59  45 1.73  40 1.73  50 1.78  58 1.78  71 1.79
   7  0.658  0.904  0.404- 111 1.59  48 1.73  37 1.73  51 1.78  59 1.78  70 1.79
   8  0.658  0.904  0.904- 112 1.59  47 1.73  38 1.73  52 1.78  60 1.78  69 1.79
   9  0.402  0.402  0.157- 105 1.60  45 1.73  27 1.74  98 1.75  79 1.76  58 1.79
  10  0.402  0.402  0.657- 106 1.60  46 1.73  28 1.74  97 1.75  80 1.76  57 1.79
  11  0.402  0.902  0.157- 107 1.60  47 1.73  25 1.74 100 1.75  77 1.76  60 1.79
  12  0.402  0.902  0.657- 108 1.60  48 1.73  26 1.74  99 1.75  78 1.76  59 1.79
  13  0.902  0.402  0.157- 109 1.60  41 1.73  31 1.74 102 1.75  75 1.76  62 1.79
  14  0.902  0.402  0.657- 110 1.60  42 1.73  32 1.74 101 1.75  76 1.76  61 1.79
  15  0.902  0.902  0.157- 111 1.60  43 1.73  29 1.74 104 1.75  73 1.76  64 1.79
  16  0.902  0.902  0.657- 112 1.60  44 1.73  30 1.74 103 1.75  74 1.76  63 1.79
  17  0.402  0.157  0.402- 105 1.60  37 1.73  26 1.74  99 1.75  86 1.76  51 1.79
  18  0.402  0.157  0.902- 106 1.60  38 1.73  25 1.74 100 1.75  85 1.76  52 1.79
  19  0.402  0.657  0.402- 107 1.60  39 1.73  28 1.74  97 1.75  88 1.76  49 1.79
  20  0.402  0.657  0.902- 108 1.60  40 1.73  27 1.74  98 1.75  87 1.76  50 1.79
  21  0.902  0.157  0.402- 109 1.60  33 1.73  30 1.74 103 1.75  82 1.76  55 1.79
  22  0.902  0.157  0.902- 110 1.60  34 1.73  29 1.74 104 1.75  81 1.76  56 1.79
  23  0.902  0.657  0.402- 111 1.60  35 1.73  32 1.74 101 1.75  84 1.76  53 1.79
  24  0.902  0.657  0.902- 112 1.60  36 1.73  31 1.74 102 1.75  83 1.76  54 1.79
  25  0.341  0.097  0.097- 113 1.58 100 1.73  18 1.74  11 1.74  77 1.78  85 1.78
  26  0.341  0.097  0.597- 114 1.58  99 1.73  17 1.74  12 1.74  78 1.78  86 1.78
  27  0.341  0.597  0.097- 115 1.58  98 1.73  20 1.74   9 1.74  79 1.78  87 1.78
  28  0.341  0.597  0.597- 116 1.58  97 1.73  19 1.74  10 1.74  80 1.78  88 1.78
  29  0.841  0.097  0.097- 117 1.58 104 1.73  22 1.74  15 1.74  73 1.78  81 1.78
  30  0.841  0.097  0.597- 118 1.58 103 1.73  21 1.74  16 1.74  74 1.78  82 1.78
  31  0.841  0.597  0.097- 119 1.58 102 1.73  24 1.74  13 1.74  75 1.78  83 1.78
  32  0.841  0.597  0.597- 120 1.58 101 1.73  23 1.74  14 1.74  76 1.78  84 1.78
  33  0.099  0.097  0.344- 113 1.60  21 1.73   3 1.73  55 1.77  82 1.79  66 1.80
  34  0.099  0.097  0.844- 114 1.60  22 1.73   4 1.73  56 1.77  81 1.79  65 1.80
  35  0.099  0.597  0.344- 115 1.60  23 1.73   1 1.73  53 1.77  84 1.79  68 1.80
  36  0.099  0.597  0.844- 116 1.60  24 1.73   2 1.73  54 1.77  83 1.79  67 1.80
  37  0.599  0.097  0.344- 117 1.60  17 1.73   7 1.73  51 1.77  86 1.79  70 1.80
  38  0.599  0.097  0.844- 118 1.60  18 1.73   8 1.73  52 1.77  85 1.79  69 1.80
  39  0.599  0.597  0.344- 119 1.60  19 1.73   5 1.73  49 1.77  88 1.79  72 1.80
  40  0.599  0.597  0.844- 120 1.60  20 1.73   6 1.73  50 1.77  87 1.79  71 1.80
  41  0.099  0.344  0.097- 113 1.60  13 1.73   2 1.73  62 1.77  75 1.79  67 1.80
  42  0.099  0.344  0.597- 114 1.60  14 1.73   1 1.73  61 1.77  76 1.79  68 1.80
  43  0.099  0.844  0.097- 115 1.60  15 1.73   4 1.73  64 1.77  73 1.79  65 1.80
  44  0.099  0.844  0.597- 116 1.60  16 1.73   3 1.73  63 1.77  74 1.79  66 1.80
  45  0.599  0.344  0.097- 117 1.60   9 1.73   6 1.73  58 1.77  79 1.79  71 1.80
  46  0.599  0.344  0.597- 118 1.60  10 1.73   5 1.73  57 1.77  80 1.79  72 1.80
  47  0.599  0.844  0.097- 119 1.60  11 1.73   8 1.73  60 1.77  77 1.79  69 1.80
  48  0.599  0.844  0.597- 120 1.60  12 1.73   7 1.73  59 1.77  78 1.79  70 1.80
  49  0.494  0.497  0.337-  79 1.72  97 1.76  39 1.77   5 1.78  19 1.79  57 1.79
  50  0.494  0.497  0.837-  80 1.72  98 1.76  40 1.77   6 1.78  20 1.79  58 1.79
  51  0.494  0.997  0.337-  77 1.72  99 1.76  37 1.77   7 1.78  17 1.79  59 1.79
  52  0.494  0.997  0.837-  78 1.72 100 1.76  38 1.77   8 1.78  18 1.79  60 1.79
  53  0.994  0.497  0.337-  75 1.72 101 1.76  35 1.77   1 1.78  23 1.79  61 1.79
  54  0.994  0.497  0.837-  76 1.72 102 1.76  36 1.77   2 1.78  24 1.79  62 1.79
  55  0.994  0.997  0.337-  73 1.72 103 1.76  33 1.77   3 1.78  21 1.79  63 1.79
  56  0.994  0.997  0.837-  74 1.72 104 1.76  34 1.77   4 1.78  22 1.79  64 1.79
  57  0.494  0.337  0.497-  86 1.72  97 1.76  46 1.77   5 1.78  10 1.79  49 1.79
  58  0.494  0.337  0.997-  85 1.72  98 1.76  45 1.77   6 1.78   9 1.79  50 1.79
  59  0.494  0.837  0.497-  88 1.72  99 1.76  48 1.77   7 1.78  12 1.79  51 1.79
  60  0.494  0.837  0.997-  87 1.72 100 1.76  47 1.77   8 1.78  11 1.79  52 1.79
[...]
 106  0.306  0.309  0.809-  90 1.43   2 1.59  10 1.60  18 1.60
 107  0.306  0.809  0.309-  91 1.43   3 1.59  11 1.60  19 1.60
 108  0.306  0.809  0.809-  92 1.43   4 1.59  12 1.60  20 1.60
 109  0.806  0.309  0.309-  93 1.43   5 1.59  13 1.60  21 1.60
 110  0.806  0.309  0.809-  94 1.43   6 1.59  14 1.60  22 1.60
 111  0.806  0.809  0.309-  95 1.43   7 1.59  15 1.60  23 1.60
 112  0.806  0.809  0.809-  96 1.43   8 1.59  16 1.60  24 1.60
 113  0.191  0.189  0.189-  89 1.41  25 1.58  33 1.60  41 1.60
 114  0.191  0.189  0.689-  90 1.41  26 1.58  34 1.60  42 1.60
 115  0.191  0.689  0.189-  91 1.41  27 1.58  35 1.60  43 1.60
 116  0.191  0.689  0.689-  92 1.41  28 1.58  36 1.60  44 1.60
 117  0.691  0.189  0.189-  93 1.41  29 1.58  37 1.60  45 1.60
 118  0.691  0.189  0.689-  94 1.41  30 1.58  38 1.60  46 1.60
 119  0.691  0.689  0.189-  95 1.41  31 1.58  39 1.60  47 1.60
 120  0.691  0.689  0.689-  96 1.41  32 1.58  40 1.60  48 1.60

  LATTYP: Found a base centered monoclinic cell.
 ALAT       =    17.3422026552
 B/A-ratio  =     0.6417943342
 C/A-ratio  =     0.5791019906
 COS(beta)  =    -0.4855436724

  Lattice vectors:

 A1 = (  -2.6497070000,  -9.0076490000,  -4.2425530000)
 A2 = (   0.0509250000,  -0.0713060000, -10.3029240000)
 A3 = (   9.1457570000,   0.0496820000,   4.1488050000)

Analysis of symmetry for initial positions (statically):
 Subroutine PRICEL returns following result:

[...]

   8 primitive cells build up your supercell.

 Routine SETGRP: Setting up the symmetry group for a
 base centered monoclinic supercell.

 Subroutine GETGRP returns: Found  2 space group operations
 (whereof  2 operations were pure point group operations)
 out of a pool of  4 trial point group operations.

The static configuration has the point symmetry C_1h.

Analysis of symmetry for dynamics (positions and initial velocities):
 Subroutine PRICEL returns following result:

  LATTYP: Found a base centered monoclinic cell.
 ALAT       =     8.6711013276
 B/A-ratio  =     0.6417943342
 C/A-ratio  =     0.5791019906
 COS(beta)  =    -0.4855436724

  Lattice vectors:

 A1 = (  -1.3248535000,  -4.5038245000,  -2.1212765000)
 A2 = (   0.0254625000,  -0.0356530000,  -5.1514620000)
 A3 = (   4.5728785000,   0.0248410000,   2.0744025000)

   8 primitive cells build up your supercell.

 Routine SETGRP: Setting up the symmetry group for a
 base centered monoclinic supercell.

 Subroutine GETGRP returns: Found  2 space group operations
 (whereof  2 operations were pure point group operations)
 out of a pool of  4 trial point group operations.

The dynamic configuration has the point symmetry C_1h.

 Subroutine INISYM returns: Found  2 space group operations
 (whereof  2 operations are pure point group operations),
 and found     8 'primitive' translations

                                     Primitive cell

  volume of cell :     105.9158

  direct lattice vectors                    reciprocal lattice vectors
    -1.324853500 -4.503824500 -2.121276500     0.000509922 -0.222911336  0.001545278
     0.025462500 -0.035653000 -5.151462000     0.087711667  0.065637622 -0.194140386
     4.572878500  0.024841000  2.074402500     0.218339983 -0.064947311  0.001528702

  length of vectors
     5.151648854  5.151648301  5.021452039     0.222917275  0.222917302  0.227799996

  position of ions in fractional coordinates (direct lattice)
     0.192484000  0.192484000  0.315846000
     0.195324000  0.685560000  0.803264000
     0.685560000  0.195324000  0.803264000
     0.806670000  0.806670000  0.682732000
     0.806328000  0.312578000  0.197400000
     0.312578000  0.806328000  0.197400000
     0.005202000  0.326404000  0.988894000
     0.326404000  0.005202000  0.988894000
     0.994100000  0.994100000  0.341590000
     0.994490000  0.671276000  0.006950000
     0.671276000  0.994490000  0.006950000
     0.501982000  0.501982000  0.495990000
     0.004144000  0.004144000  0.676672000
     0.381126000  0.381126000  0.612176000
     0.622330000  0.622330000  0.381978000

  ion indices of the primitive-cell ions
   primitive index   ion index
                 1           1
[...]
   -.189E+02 0.122E+02 0.960E+01   0.205E+02 -.130E+02 -.101E+02   -.165E+01 0.809E+00 0.457E+00   -.577E-04 -.211E-05 -.288E-04
   -.189E+02 0.122E+02 0.960E+01   0.205E+02 -.130E+02 -.101E+02   -.165E+01 0.809E+00 0.457E+00   -.577E-04 -.211E-05 -.288E-04
   -.189E+02 0.122E+02 0.960E+01   0.205E+02 -.130E+02 -.101E+02   -.165E+01 0.809E+00 0.457E+00   -.577E-04 -.211E-05 -.288E-04
   -.189E+02 0.122E+02 0.960E+01   0.205E+02 -.130E+02 -.101E+02   -.165E+01 0.809E+00 0.457E+00   -.577E-04 -.211E-05 -.288E-04
   -.189E+02 0.122E+02 0.960E+01   0.205E+02 -.130E+02 -.101E+02   -.165E+01 0.809E+00 0.457E+00   -.577E-04 -.211E-05 -.288E-04
   -.189E+02 0.122E+02 0.960E+01   0.205E+02 -.130E+02 -.101E+02   -.165E+01 0.809E+00 0.457E+00   -.577E-04 -.211E-05 -.288E-04
   -.189E+02 0.122E+02 0.960E+01   0.205E+02 -.130E+02 -.101E+02   -.165E+01 0.809E+00 0.457E+00   -.577E-04 -.211E-05 -.288E-04
   -.189E+02 0.122E+02 0.960E+01   0.205E+02 -.130E+02 -.101E+02   -.165E+01 0.809E+00 0.457E+00   -.577E-04 -.211E-05 -.288E-04
   0.135E+02 0.192E+02 -.215E+02   -.138E+02 -.208E+02 0.244E+02   0.246E+00 0.156E+01 -.286E+01   -.107E-04 -.287E-04 -.644E-04
   0.135E+02 0.192E+02 -.215E+02   -.138E+02 -.208E+02 0.244E+02   0.246E+00 0.156E+01 -.286E+01   -.107E-04 -.287E-04 -.644E-04
   0.135E+02 0.192E+02 -.215E+02   -.138E+02 -.208E+02 0.244E+02   0.246E+00 0.156E+01 -.286E+01   -.107E-04 -.287E-04 -.644E-04
   0.135E+02 0.192E+02 -.215E+02   -.138E+02 -.208E+02 0.244E+02   0.246E+00 0.156E+01 -.286E+01   -.107E-04 -.287E-04 -.644E-04
   0.135E+02 0.192E+02 -.215E+02   -.138E+02 -.208E+02 0.244E+02   0.246E+00 0.156E+01 -.286E+01   -.107E-04 -.287E-04 -.644E-04
   0.135E+02 0.192E+02 -.215E+02   -.138E+02 -.208E+02 0.244E+02   0.246E+00 0.156E+01 -.286E+01   -.107E-04 -.287E-04 -.644E-04
   0.135E+02 0.192E+02 -.215E+02   -.138E+02 -.208E+02 0.244E+02   0.246E+00 0.156E+01 -.286E+01   -.107E-04 -.287E-04 -.644E-04
   0.135E+02 0.192E+02 -.215E+02   -.138E+02 -.208E+02 0.244E+02   0.246E+00 0.156E+01 -.286E+01   -.107E-04 -.287E-04 -.644E-04
   -.125E+01 -.296E+02 0.116E+02   0.239E+01 0.327E+02 -.119E+02   -.115E+01 -.305E+01 0.265E+00   -.153E-04 -.438E-04 -.542E-04
   -.125E+01 -.296E+02 0.116E+02   0.239E+01 0.327E+02 -.119E+02   -.115E+01 -.305E+01 0.265E+00   -.153E-04 -.438E-04 -.542E-04
   -.125E+01 -.296E+02 0.116E+02   0.239E+01 0.327E+02 -.119E+02   -.115E+01 -.305E+01 0.265E+00   -.153E-04 -.438E-04 -.542E-04
   -.125E+01 -.296E+02 0.116E+02   0.239E+01 0.327E+02 -.119E+02   -.115E+01 -.305E+01 0.265E+00   -.153E-04 -.438E-04 -.542E-04
   -.125E+01 -.296E+02 0.116E+02   0.239E+01 0.327E+02 -.119E+02   -.115E+01 -.305E+01 0.265E+00   -.153E-04 -.438E-04 -.542E-04
   -.125E+01 -.296E+02 0.116E+02   0.239E+01 0.327E+02 -.119E+02   -.115E+01 -.305E+01 0.265E+00   -.153E-04 -.438E-04 -.542E-04
   -.125E+01 -.296E+02 0.116E+02   0.239E+01 0.327E+02 -.119E+02   -.115E+01 -.305E+01 0.265E+00   -.153E-04 -.438E-04 -.542E-04
   -.125E+01 -.296E+02 0.116E+02   0.239E+01 0.327E+02 -.119E+02   -.115E+01 -.305E+01 0.265E+00   -.153E-04 -.438E-04 -.542E-04
   0.126E+02 -.171E+02 -.197E+02   -.138E+02 0.189E+02 0.217E+02   0.123E+01 -.174E+01 -.201E+01   -.304E-03 0.106E-03 0.207E-04
   0.126E+02 -.171E+02 -.197E+02   -.138E+02 0.189E+02 0.217E+02   0.123E+01 -.174E+01 -.201E+01   -.304E-03 0.106E-03 0.207E-04
   0.126E+02 -.171E+02 -.197E+02   -.138E+02 0.189E+02 0.217E+02   0.123E+01 -.174E+01 -.201E+01   -.304E-03 0.106E-03 0.207E-04
   0.126E+02 -.171E+02 -.197E+02   -.138E+02 0.189E+02 0.217E+02   0.123E+01 -.174E+01 -.201E+01   -.304E-03 0.106E-03 0.207E-04
   0.126E+02 -.171E+02 -.197E+02   -.138E+02 0.189E+02 0.217E+02   0.123E+01 -.174E+01 -.201E+01   -.304E-03 0.106E-03 0.207E-04
   0.126E+02 -.171E+02 -.197E+02   -.138E+02 0.189E+02 0.217E+02   0.123E+01 -.174E+01 -.201E+01   -.304E-03 0.106E-03 0.207E-04
   0.126E+02 -.171E+02 -.197E+02   -.138E+02 0.189E+02 0.217E+02   0.123E+01 -.174E+01 -.201E+01   -.304E-03 0.106E-03 0.207E-04
   0.126E+02 -.171E+02 -.197E+02   -.138E+02 0.189E+02 0.217E+02   0.123E+01 -.174E+01 -.201E+01   -.304E-03 0.106E-03 0.207E-04
   -.161E+02 -.139E+02 0.867E+01   0.168E+02 0.143E+02 -.101E+02   -.740E+00 -.330E+00 0.139E+01   -.667E-04 -.109E-03 0.780E-04
   -.161E+02 -.139E+02 0.867E+01   0.168E+02 0.143E+02 -.101E+02   -.740E+00 -.330E+00 0.139E+01   -.667E-04 -.109E-03 0.780E-04
   -.161E+02 -.139E+02 0.867E+01   0.168E+02 0.143E+02 -.101E+02   -.740E+00 -.330E+00 0.139E+01   -.667E-04 -.109E-03 0.780E-04
   -.161E+02 -.139E+02 0.867E+01   0.168E+02 0.143E+02 -.101E+02   -.740E+00 -.330E+00 0.139E+01   -.667E-04 -.109E-03 0.780E-04
   -.161E+02 -.139E+02 0.867E+01   0.168E+02 0.143E+02 -.101E+02   -.740E+00 -.330E+00 0.139E+01   -.667E-04 -.109E-03 0.780E-04
   -.161E+02 -.139E+02 0.867E+01   0.168E+02 0.143E+02 -.101E+02   -.740E+00 -.330E+00 0.139E+01   -.667E-04 -.109E-03 0.780E-04
   -.161E+02 -.139E+02 0.867E+01   0.168E+02 0.143E+02 -.101E+02   -.740E+00 -.330E+00 0.139E+01   -.667E-04 -.109E-03 0.780E-04
   -.161E+02 -.139E+02 0.867E+01   0.168E+02 0.143E+02 -.101E+02   -.740E+00 -.330E+00 0.139E+01   -.667E-04 -.109E-03 0.780E-04
   -.644E+01 0.179E+02 -.129E+02   0.660E+01 -.195E+02 0.128E+02   -.158E+00 0.160E+01 0.806E-01   0.424E-05 0.126E-03 -.813E-04
   -.644E+01 0.179E+02 -.129E+02   0.660E+01 -.195E+02 0.128E+02   -.158E+00 0.160E+01 0.806E-01   0.424E-05 0.126E-03 -.813E-04
   -.644E+01 0.179E+02 -.129E+02   0.660E+01 -.195E+02 0.128E+02   -.158E+00 0.160E+01 0.806E-01   0.424E-05 0.126E-03 -.813E-04
   -.644E+01 0.179E+02 -.129E+02   0.660E+01 -.195E+02 0.128E+02   -.158E+00 0.160E+01 0.806E-01   0.424E-05 0.126E-03 -.813E-04
   -.644E+01 0.179E+02 -.129E+02   0.660E+01 -.195E+02 0.128E+02   -.158E+00 0.160E+01 0.806E-01   0.424E-05 0.126E-03 -.813E-04
   -.644E+01 0.179E+02 -.129E+02   0.660E+01 -.195E+02 0.128E+02   -.158E+00 0.160E+01 0.806E-01   0.424E-05 0.126E-03 -.813E-04
   -.644E+01 0.179E+02 -.129E+02   0.660E+01 -.195E+02 0.128E+02   -.158E+00 0.160E+01 0.806E-01   0.424E-05 0.126E-03 -.813E-04
   -.644E+01 0.179E+02 -.129E+02   0.660E+01 -.195E+02 0.128E+02   -.158E+00 0.160E+01 0.806E-01   0.424E-05 0.126E-03 -.813E-04
   -.147E+01 0.501E+01 0.543E+02   0.307E+01 -.518E+01 -.599E+02   -.159E+01 0.176E+00 0.556E+01   0.109E-03 0.117E-03 -.649E-04
   -.147E+01 0.501E+01 0.543E+02   0.307E+01 -.518E+01 -.599E+02   -.159E+01 0.176E+00 0.556E+01   0.109E-03 0.117E-03 -.649E-04
   -.147E+01 0.501E+01 0.543E+02   0.307E+01 -.518E+01 -.599E+02   -.159E+01 0.176E+00 0.556E+01   0.109E-03 0.117E-03 -.649E-04
   -.147E+01 0.501E+01 0.543E+02   0.307E+01 -.518E+01 -.599E+02   -.159E+01 0.176E+00 0.556E+01   0.109E-03 0.117E-03 -.649E-04
   -.147E+01 0.501E+01 0.543E+02   0.307E+01 -.518E+01 -.599E+02   -.159E+01 0.176E+00 0.556E+01   0.109E-03 0.117E-03 -.649E-04
   -.147E+01 0.501E+01 0.543E+02   0.307E+01 -.518E+01 -.599E+02   -.159E+01 0.176E+00 0.556E+01   0.109E-03 0.117E-03 -.649E-04
   -.147E+01 0.501E+01 0.543E+02   0.307E+01 -.518E+01 -.599E+02   -.159E+01 0.176E+00 0.556E+01   0.109E-03 0.117E-03 -.649E-04
   -.147E+01 0.501E+01 0.543E+02   0.307E+01 -.518E+01 -.599E+02   -.159E+01 0.176E+00 0.556E+01   0.109E-03 0.117E-03 -.649E-04
   0.111E+02 0.466E+02 0.261E+02   -.111E+02 -.521E+02 -.281E+02   -.456E-02 0.543E+01 0.200E+01   0.334E-04 -.133E-03 0.105E-03
   0.111E+02 0.466E+02 0.261E+02   -.111E+02 -.521E+02 -.281E+02   -.456E-02 0.543E+01 0.200E+01   0.334E-04 -.133E-03 0.105E-03
   0.111E+02 0.466E+02 0.261E+02   -.111E+02 -.521E+02 -.281E+02   -.456E-02 0.543E+01 0.200E+01   0.334E-04 -.133E-03 0.105E-03
   0.111E+02 0.466E+02 0.261E+02   -.111E+02 -.521E+02 -.281E+02   -.456E-02 0.543E+01 0.200E+01   0.334E-04 -.133E-03 0.105E-03
[...]
   -.141E+02 -.121E+02 -.241E+02   0.159E+02 0.146E+02 0.286E+02   -.182E+01 -.252E+01 -.452E+01   0.150E-04 0.185E-05 0.941E-05
   -.141E+02 -.121E+02 -.241E+02   0.159E+02 0.146E+02 0.286E+02   -.182E+01 -.252E+01 -.452E+01   0.150E-04 0.185E-05 0.941E-05
   -.141E+02 -.121E+02 -.241E+02   0.159E+02 0.146E+02 0.286E+02   -.182E+01 -.252E+01 -.452E+01   0.150E-04 0.185E-05 0.941E-05
   -.141E+02 -.121E+02 -.241E+02   0.159E+02 0.146E+02 0.286E+02   -.182E+01 -.252E+01 -.452E+01   0.150E-04 0.185E-05 0.941E-05
   -.141E+02 -.121E+02 -.241E+02   0.159E+02 0.146E+02 0.286E+02   -.182E+01 -.252E+01 -.452E+01   0.150E-04 0.185E-05 0.941E-05
   -.141E+02 -.121E+02 -.241E+02   0.159E+02 0.146E+02 0.286E+02   -.182E+01 -.252E+01 -.452E+01   0.150E-04 0.185E-05 0.941E-05
   0.194E+02 0.120E+02 0.263E+02   -.217E+02 -.148E+02 -.316E+02   0.236E+01 0.286E+01 0.527E+01   0.657E-03 -.379E-03 -.265E-03
   0.194E+02 0.120E+02 0.263E+02   -.217E+02 -.148E+02 -.316E+02   0.236E+01 0.286E+01 0.527E+01   0.657E-03 -.379E-03 -.265E-03
   0.194E+02 0.120E+02 0.263E+02   -.217E+02 -.148E+02 -.316E+02   0.236E+01 0.286E+01 0.527E+01   0.657E-03 -.379E-03 -.265E-03
   0.194E+02 0.120E+02 0.263E+02   -.217E+02 -.148E+02 -.316E+02   0.236E+01 0.286E+01 0.527E+01   0.657E-03 -.379E-03 -.265E-03
   0.194E+02 0.120E+02 0.263E+02   -.217E+02 -.148E+02 -.316E+02   0.236E+01 0.286E+01 0.527E+01   0.657E-03 -.379E-03 -.265E-03
   0.194E+02 0.120E+02 0.263E+02   -.217E+02 -.148E+02 -.316E+02   0.236E+01 0.286E+01 0.527E+01   0.657E-03 -.379E-03 -.265E-03
   0.194E+02 0.120E+02 0.263E+02   -.217E+02 -.148E+02 -.316E+02   0.236E+01 0.286E+01 0.527E+01   0.657E-03 -.379E-03 -.265E-03
   0.194E+02 0.120E+02 0.263E+02   -.217E+02 -.148E+02 -.316E+02   0.236E+01 0.286E+01 0.527E+01   0.657E-03 -.379E-03 -.265E-03
   -.535E+01 -.889E+01 -.155E+02   -.711E-13 -.444E-12 -.561E-12   0.537E+01 0.889E+01 0.155E+02   0.600E-02 -.180E-02 0.178E-04

 POSITION                                       TOTAL-FORCE (eV/Angst)
      2.45974      3.69696      6.54747         0.000142      0.000648      0.001019
      2.41767      3.74867     11.70414         0.000142      0.000648      0.001019
      3.76506      8.20716      8.68052         0.000142      0.000648      0.001019
      3.72298      8.25887     13.83719         0.000142      0.000648      0.001019
      7.01860      3.71748      8.60926         0.000142      0.000648      0.001019
      6.97652      3.76919     13.76592         0.000142      0.000648      0.001019
      8.32391      8.22768     10.74230         0.000142      0.000648      0.001019
      8.28184      8.27939     15.89897         0.000142      0.000648      0.001019
      4.69281      3.65151      4.99631         0.000615     -0.000442      0.000663
      4.65074      3.70322     10.15298         0.000615     -0.000442      0.000663
      5.99813      8.16171      7.12936         0.000615     -0.000442      0.000663
      5.95605      8.21342     12.28603         0.000615     -0.000442      0.000663
      9.25167      3.67203      7.05809         0.000615     -0.000442      0.000663
      9.20960      3.72374     12.21476         0.000615     -0.000442      0.000663
     10.55699      8.18223      9.19114         0.000615     -0.000442      0.000663
     10.51491      8.23394     14.34781         0.000615     -0.000442      0.000663
      4.03770      1.48376      6.46642         0.000890      0.000467      0.000046
      3.99563      1.53547     11.62309         0.000890      0.000467      0.000046
      5.34302      5.99396      8.59947         0.000890      0.000467      0.000046
      5.30094      6.04567     13.75613         0.000890      0.000467      0.000046
      8.59656      1.50428      8.52820         0.000890      0.000467      0.000046
      8.55449      1.55599     13.68487         0.000890      0.000467      0.000046
      9.90188      6.01448     10.66125         0.000890      0.000467      0.000046
      9.85980      6.06619     15.81792         0.000890      0.000467      0.000046
      3.36319      0.88797      2.80807        -0.000821      0.000445      0.000290
      3.32112      0.93968      7.96474        -0.000821      0.000445      0.000290
      4.66851      5.39817      4.94112        -0.000821      0.000445      0.000290
      4.62644      5.44988     10.09778        -0.000821      0.000445      0.000290
      7.92205      0.90849      4.86985        -0.000821      0.000445      0.000290
      7.87998      0.96020     10.02652        -0.000821      0.000445      0.000290
      9.22737      5.41869      7.00290        -0.000821      0.000445      0.000290
      9.18529      5.47040     12.15957        -0.000821      0.000445      0.000290
      1.13184      0.92255      4.36839        -0.001178     -0.000686      0.000173
      1.08976      0.97427      9.52506        -0.001178     -0.000686      0.000173
      2.43715      5.43276      6.50144        -0.001178     -0.000686      0.000173
      2.39508      5.48447     11.65810        -0.001178     -0.000686      0.000173
      5.69070      0.94307      6.43017        -0.001178     -0.000686      0.000173
      5.64862      0.99479     11.58684        -0.001178     -0.000686      0.000173
      6.99601      5.45328      8.56322        -0.001178     -0.000686      0.000173
      6.95394      5.50499     13.71989        -0.001178     -0.000686      0.000173
      1.79340      3.11165      2.88381        -0.000726      0.000809     -0.000841
      1.75132      3.16336      8.04047        -0.000726      0.000809     -0.000841
      3.09871      7.62185      5.01685        -0.000726      0.000809     -0.000841
      3.05664      7.67356     10.17352        -0.000726      0.000809     -0.000841
      6.35226      3.13217      4.94559        -0.000726      0.000809     -0.000841
      6.31018      3.18388     10.10226        -0.000726      0.000809     -0.000841
      7.65757      7.64237      7.07864        -0.000726      0.000809     -0.000841
      7.61550      7.69408     12.23531        -0.000726      0.000809     -0.000841
      5.77457      4.54893      7.63862         0.000326     -0.000269     -0.000743
      5.73249      4.60064     12.79529         0.000326     -0.000269     -0.000743
      7.07988      9.05913      9.77167         0.000326     -0.000269     -0.000743
      7.03781      9.11085     14.92834         0.000326     -0.000269     -0.000743
     10.33343      4.56945      9.70040         0.000326     -0.000269     -0.000743
     10.29135      4.62116     14.85707         0.000326     -0.000269     -0.000743
     11.63874      9.07965     11.83345         0.000326     -0.000269     -0.000743
     11.59667      9.13137     16.99012         0.000326     -0.000269     -0.000743
      5.34061      3.11298      8.61244         0.000196     -0.000699     -0.000452
      5.29854      3.16469     13.76911         0.000196     -0.000699     -0.000452
      6.64593      7.62319     10.74549         0.000196     -0.000699     -0.000452
      6.60385      7.67490     15.90216         0.000196     -0.000699     -0.000452
[...]
      3.51127      2.89379     10.93091         0.000134      0.000256      0.000437
      4.85866      7.35229      7.90729         0.000134      0.000256      0.000437
      4.81658      7.40400     13.06396         0.000134      0.000256      0.000437
      8.11220      2.86260      7.83603         0.000134      0.000256      0.000437
      8.07012      2.91431     12.99270         0.000134      0.000256      0.000437
      9.41751      7.37281      9.96908         0.000134      0.000256      0.000437
      9.37544      7.42452     15.12574         0.000134      0.000256      0.000437
      2.22467      1.70880      3.51108        -0.000206     -0.000526     -0.000867
      2.18259      1.76051      8.66774        -0.000206     -0.000526     -0.000867
      3.52998      6.21900      5.64412        -0.000206     -0.000526     -0.000867
      3.48791      6.27072     10.80079        -0.000206     -0.000526     -0.000867
      6.78353      1.72932      5.57286        -0.000206     -0.000526     -0.000867
      6.74145      1.78103     10.72953        -0.000206     -0.000526     -0.000867
      8.08884      6.23952      7.70591        -0.000206     -0.000526     -0.000867
      8.04677      6.29124     12.86257        -0.000206     -0.000526     -0.000867
    total drift:                                0.028791     -0.006605      0.003083

  FREE ENERGIE OF THE ION-ELECTRON SYSTEM (eV)
  free  energy   TOTEN  =      -876.84017194 eV

  energy  without entropy=     -876.84017194  energy(sigma->0) =     -876.84017194

 d Force = 0.1180016E-05[-0.105E-06, 0.247E-05]  d Energy = 0.8915410E-06 0.288E-06
 d Force = 0.1195114E-01[ 0.119E-01, 0.120E-01]  d Ewald  = 0.1191868E-01 0.325E-04

 reached required accuracy - stopping structural energy minimisation
 BZINTS: Fermi energy:    5.379398;  384.000000 electrons
         Band energy:-0.317418E+03;  BLOECHL correction:   -0.000000