 vasp.6.2.0 18Jan21 (build Feb 25 2021 07:51:20) complex
 executed on             LinuxPGI date 2022.04.01  13:50:42

 INCAR:
   ALGO = Fast
   PREC = Accurate
   EDIFF = 1E-6
   ENCUT = 700
   ISMEAR = -5
   IBRION = 2
   ISIF = 4
   LREAL = Auto
   LWAVE = False
   LCHARGE = False
   NSW = 300
   SIGMA = 0.05

 POTCAR:    PAW_PBE B 06Sep2000
 POTCAR:    PAW_PBE C 08Apr2002
 POTCAR:    PAW_PBE B 06Sep2000
   VRHFIN =B: s2p1

   TITEL  = PAW_PBE B 06Sep2000
   POMASS =   10.811; ZVAL   =    3.000    mass and valenz
   ENMAX  =  318.614; ENMIN  =  238.960 eV

 POTCAR:    PAW_PBE C 08Apr2002
   VRHFIN =C: s2p2

   TITEL  = PAW_PBE C 08Apr2002
   POMASS =   12.011; ZVAL   =    4.000    mass and valenz
   ENMAX  =  400.000; ENMIN  =  300.000 eV

 Optimization of the real space projectors (new method)

 maximal supplied QI-value         = 22.11
 optimisation between [QCUT,QGAM] = [ 13.49, 26.97] = [ 50.94,203.75] Ry
 Optimized for a Real-space Cutoff    1.14 Angstroem

   l    n(q)    QCUT    max X(q) W(low)/X(q) W(high)/X(q)  e(spline)
   0      9    13.487    53.033    0.17E-03    0.11E-03    0.20E-06
   0      9    13.487    34.740    0.17E-03    0.11E-03    0.20E-06
   1      9    13.487    30.949    0.61E-04    0.25E-04    0.11E-06
   1      9    13.487    19.518    0.55E-04    0.23E-04    0.10E-06
 Optimization of the real space projectors (new method)

 maximal supplied QI-value         = 25.13
 optimisation between [QCUT,QGAM] = [ 13.32, 26.89] = [ 49.69,202.52] Ry
 Optimized for a Real-space Cutoff    1.07 Angstroem

   l    n(q)    QCUT    max X(q) W(low)/X(q) W(high)/X(q)  e(spline)
   0      9    13.321   115.676    0.24E-03    0.18E-03    0.16E-06
   0      9    13.321    87.132    0.24E-03    0.18E-03    0.16E-06
   1      8    13.321     4.429    0.20E-03    0.27E-03    0.12E-06
   1      8    13.321     2.733    0.16E-03    0.21E-03    0.12E-06
  PAW_PBE B 06Sep2000                   :
  PAW_PBE C 08Apr2002                   :

 POSCAR: B96 C16
  positions in direct lattice
 exchange correlation table for  LEXCH =        8
   RHO(1)=    0.500       N(1)  =     2000
   RHO(2)=  100.500       N(2)  =     4000

 ion  position               nearest neighbor table
   1  0.160  0.401  0.401-  97 1.49  76 1.71  42 1.71  35 1.71  59 1.73  66 1.73
   2  0.160  0.401  0.901-  98 1.49  75 1.71  41 1.71  36 1.71  60 1.73  65 1.73
   3  0.160  0.901  0.401-  99 1.49  74 1.71  44 1.71  33 1.71  57 1.73  68 1.73
   4  0.160  0.901  0.901- 100 1.49  73 1.71  43 1.71  34 1.71  58 1.73  67 1.73
   5  0.660  0.401  0.401- 101 1.49  80 1.71  46 1.71  39 1.71  63 1.73  70 1.73
   6  0.660  0.401  0.901- 102 1.49  79 1.71  45 1.71  40 1.71  64 1.73  69 1.73
   7  0.660  0.901  0.401- 103 1.49  78 1.71  48 1.71  37 1.71  61 1.73  72 1.73
   8  0.660  0.901  0.901- 104 1.49  77 1.71  47 1.71  38 1.71  62 1.73  71 1.73
   9  0.401  0.401  0.160-  97 1.49  87 1.71  45 1.71  27 1.71  51 1.73  69 1.73
  10  0.401  0.401  0.660-  98 1.49  88 1.71  46 1.71  28 1.71  52 1.73  70 1.73
  11  0.401  0.901  0.160-  99 1.49  85 1.71  47 1.71  25 1.71  49 1.73  71 1.73
  12  0.401  0.901  0.660- 100 1.49  86 1.71  48 1.71  26 1.71  50 1.73  72 1.73
  13  0.901  0.401  0.160- 101 1.49  83 1.71  41 1.71  31 1.71  55 1.73  65 1.73
  14  0.901  0.401  0.660- 102 1.49  84 1.71  42 1.71  32 1.71  56 1.73  66 1.73
  15  0.901  0.901  0.160- 103 1.49  81 1.71  43 1.71  29 1.71  53 1.73  67 1.73
  16  0.901  0.901  0.660- 104 1.49  82 1.71  44 1.71  30 1.71  54 1.73  68 1.73
  17  0.401  0.160  0.401-  97 1.49  94 1.71  26 1.71  37 1.71  61 1.73  50 1.73
  18  0.401  0.160  0.901-  98 1.49  93 1.71  25 1.71  38 1.71  62 1.73  49 1.73
  19  0.401  0.660  0.401-  99 1.49  96 1.71  28 1.71  39 1.71  63 1.73  52 1.73
  20  0.401  0.660  0.901- 100 1.49  95 1.71  27 1.71  40 1.71  64 1.73  51 1.73
  21  0.901  0.160  0.401- 101 1.49  90 1.71  30 1.71  33 1.71  57 1.73  54 1.73
  22  0.901  0.160  0.901- 102 1.49  89 1.71  29 1.71  34 1.71  58 1.73  53 1.73
  23  0.901  0.660  0.401- 103 1.49  92 1.71  32 1.71  35 1.71  59 1.73  56 1.73
  24  0.901  0.660  0.901- 104 1.49  91 1.71  31 1.71  36 1.71  60 1.73  55 1.73
  25  0.340  0.099  0.099- 105 1.49  49 1.71  18 1.71  11 1.71  85 1.73  93 1.73
  26  0.340  0.099  0.599- 106 1.49  50 1.71  17 1.71  12 1.71  86 1.73  94 1.73
  27  0.340  0.599  0.099- 107 1.49  51 1.71  20 1.71   9 1.71  87 1.73  95 1.73
  28  0.340  0.599  0.599- 108 1.49  52 1.71  19 1.71  10 1.71  88 1.73  96 1.73
  29  0.840  0.099  0.099- 109 1.49  53 1.71  22 1.71  15 1.71  81 1.73  89 1.73
  30  0.840  0.099  0.599- 110 1.49  54 1.71  21 1.71  16 1.71  82 1.73  90 1.73
  31  0.840  0.599  0.099- 111 1.49  55 1.71  24 1.71  13 1.71  83 1.73  91 1.73
  32  0.840  0.599  0.599- 112 1.49  56 1.71  23 1.71  14 1.71  84 1.73  92 1.73
  33  0.099  0.099  0.340- 105 1.49  57 1.71  21 1.71   3 1.71  74 1.73  90 1.73
  34  0.099  0.099  0.840- 106 1.49  58 1.71  22 1.71   4 1.71  73 1.73  89 1.73
  35  0.099  0.599  0.340- 107 1.49  59 1.71  23 1.71   1 1.71  76 1.73  92 1.73
  36  0.099  0.599  0.840- 108 1.49  60 1.71  24 1.71   2 1.71  75 1.73  91 1.73
  37  0.599  0.099  0.340- 109 1.49  61 1.71  17 1.71   7 1.71  78 1.73  94 1.73
  38  0.599  0.099  0.840- 110 1.49  62 1.71  18 1.71   8 1.71  77 1.73  93 1.73
  39  0.599  0.599  0.340- 111 1.49  63 1.71  19 1.71   5 1.71  80 1.73  96 1.73
  40  0.599  0.599  0.840- 112 1.49  64 1.71  20 1.71   6 1.71  79 1.73  95 1.73
  41  0.099  0.340  0.099- 105 1.49  65 1.71   2 1.71  13 1.71  83 1.73  75 1.73
  42  0.099  0.340  0.599- 106 1.49  66 1.71   1 1.71  14 1.71  84 1.73  76 1.73
  43  0.099  0.840  0.099- 107 1.49  67 1.71   4 1.71  15 1.71  81 1.73  73 1.73
  44  0.099  0.840  0.599- 108 1.49  68 1.71   3 1.71  16 1.71  82 1.73  74 1.73
  45  0.599  0.340  0.099- 109 1.49  69 1.71   6 1.71   9 1.71  87 1.73  79 1.73
  46  0.599  0.340  0.599- 110 1.49  70 1.71   5 1.71  10 1.71  88 1.73  80 1.73
  47  0.599  0.840  0.099- 111 1.49  71 1.71   8 1.71  11 1.71  85 1.73  77 1.73
  48  0.599  0.840  0.599- 112 1.49  72 1.71   7 1.71  12 1.71  86 1.73  78 1.73
  49  0.332  0.000  0.000-  73 1.64  25 1.71  11 1.73  18 1.73  62 1.80  71 1.80
  50  0.332  0.000  0.500-  74 1.64  26 1.71  12 1.73  17 1.73  61 1.80  72 1.80
  51  0.332  0.500  0.000-  75 1.64  27 1.71   9 1.73  20 1.73  64 1.80  69 1.80
  52  0.332  0.500  0.500-  76 1.64  28 1.71  10 1.73  19 1.73  63 1.80  70 1.80
  53  0.832  0.000  0.000-  77 1.64  29 1.71  15 1.73  22 1.73  58 1.80  67 1.80
  54  0.832  0.000  0.500-  78 1.64  30 1.71  16 1.73  21 1.73  57 1.80  68 1.80
  55  0.832  0.500  0.000-  79 1.64  31 1.71  13 1.73  24 1.73  60 1.80  65 1.80
  56  0.832  0.500  0.500-  80 1.64  32 1.71  14 1.73  23 1.73  59 1.80  66 1.80
  57  0.000  0.000  0.332-  81 1.64  33 1.71   3 1.73  21 1.73  54 1.80  68 1.80
  58  0.000  0.000  0.832-  82 1.64  34 1.71   4 1.73  22 1.73  53 1.80  67 1.80
  59  0.000  0.500  0.332-  83 1.64  35 1.71   1 1.73  23 1.73  56 1.80  66 1.80
  60  0.000  0.500  0.832-  84 1.64  36 1.71   2 1.73  24 1.73  55 1.80  65 1.80
[...]
  98  0.315  0.315  0.815-  10 1.49   2 1.49  18 1.49
  99  0.315  0.815  0.315-  11 1.49   3 1.49  19 1.49
 100  0.315  0.815  0.815-  12 1.49   4 1.49  20 1.49
 101  0.815  0.315  0.315-  13 1.49   5 1.49  21 1.49
 102  0.815  0.315  0.815-  14 1.49   6 1.49  22 1.49
 103  0.815  0.815  0.315-  15 1.49   7 1.49  23 1.49
 104  0.815  0.815  0.815-  16 1.49   8 1.49  24 1.49
 105  0.185  0.185  0.185-  33 1.49  25 1.49  41 1.49
 106  0.185  0.185  0.685-  34 1.49  26 1.49  42 1.49
 107  0.185  0.685  0.185-  35 1.49  27 1.49  43 1.49
 108  0.185  0.685  0.685-  36 1.49  28 1.49  44 1.49
 109  0.685  0.185  0.185-  37 1.49  29 1.49  45 1.49
 110  0.685  0.185  0.685-  38 1.49  30 1.49  46 1.49
 111  0.685  0.685  0.185-  39 1.49  31 1.49  47 1.49
 112  0.685  0.685  0.685-  40 1.49  32 1.49  48 1.49

  LATTYP: Found a trigonal (rhomboedric) cell.
 ALAT       =     9.9678688563
 COS(alpha) =     0.4242225596

  Lattice vectors:

 A1 = (   9.0658750000,   0.0698060000,   4.1428810000)
 A2 = (   2.6894530000,   8.6580500000,   4.1428810000)
 A3 = (   0.0940190000,   0.0698060000,   9.9671810000)

Analysis of symmetry for initial positions (statically):
 Subroutine PRICEL returns following result:

[...]

   8 primitive cells build up your supercell.

 Routine SETGRP: Setting up the symmetry group for a
 trigonal (rhombohedral) supercell.

 Subroutine GETGRP returns: Found 12 space group operations
 (whereof 12 operations were pure point group operations)
 out of a pool of 12 trial point group operations.

The static configuration has the point symmetry D_3d.

Analysis of symmetry for dynamics (positions and initial velocities):
 Subroutine PRICEL returns following result:

  LATTYP: Found a trigonal (rhomboedric) cell.
 ALAT       =     4.9839344282
 COS(alpha) =     0.4242225596

  Lattice vectors:

 A1 = (   4.5329375000,   0.0349030000,   2.0714405000)
 A2 = (   1.3447265000,   4.3290250000,   2.0714405000)
 A3 = (   0.0470095000,   0.0349030000,   4.9835905000)

   8 primitive cells build up your supercell.

 Routine SETGRP: Setting up the symmetry group for a
 trigonal (rhombohedral) supercell.

 Subroutine GETGRP returns: Found 12 space group operations
 (whereof 12 operations were pure point group operations)
 out of a pool of 12 trial point group operations.

The dynamic configuration has the point symmetry D_3d.

 Subroutine INISYM returns: Found 12 space group operations
 (whereof 12 operations are pure point group operations),
 and found     8 'primitive' translations

                                     Primitive cell

  volume of cell :      96.9114

  direct lattice vectors                    reciprocal lattice vectors
     4.532937500  0.034903000  2.071440500     0.221870508 -0.068146645 -0.001615602
     1.344726500  4.329025000  2.071440500    -0.001048821  0.232097769 -0.001615623
     0.047009500  0.034903000  4.983590500    -0.091785026 -0.068146650  0.202001607

  length of vectors
     4.983934825  4.983935449  4.983934428     0.232105790  0.232105762  0.232105808

  position of ions in fractional coordinates (direct lattice)
     0.320790000  0.801030000  0.801030000
     0.801030000  0.801030000  0.320790000
     0.801030000  0.320790000  0.801030000
     0.679210000  0.198970000  0.198970000
     0.198970000  0.198970000  0.679210000
     0.198970000  0.679210000  0.198970000
     0.664586000  0.000230000  0.000230000
     0.000230000  0.000230000  0.664586000
     0.000230000  0.664586000  0.000230000
     0.335414000  0.999770000  0.999770000
     0.999770000  0.999770000  0.335414000
     0.999770000  0.335414000  0.999770000
     0.630794000  0.630794000  0.630794000
     0.369206000  0.369206000  0.369206000

  ion indices of the primitive-cell ions
   primitive index   ion index
                 1           1
                 2           9
                 3          17
                 4          28
                 5          35
                 6          42
                 7          52
                 8          59
                 9          66
                10          76
                11          83
[...]
   -.115E+02 0.160E+02 0.185E+02   0.137E+02 -.176E+02 -.199E+02   -.215E+01 0.157E+01 0.136E+01   -.974E-06 -.187E-05 -.319E-05
   -.115E+02 0.160E+02 0.185E+02   0.137E+02 -.176E+02 -.199E+02   -.215E+01 0.157E+01 0.136E+01   -.974E-06 -.187E-05 -.319E-05
   0.216E+02 0.160E+02 -.301E+01   -.237E+02 -.176E+02 0.442E+01   0.212E+01 0.157E+01 -.141E+01   -.251E-05 -.187E-05 -.219E-05
   0.216E+02 0.160E+02 -.301E+01   -.237E+02 -.176E+02 0.442E+01   0.212E+01 0.157E+01 -.141E+01   -.251E-05 -.187E-05 -.219E-05
   0.216E+02 0.160E+02 -.301E+01   -.237E+02 -.176E+02 0.442E+01   0.212E+01 0.157E+01 -.141E+01   -.251E-05 -.187E-05 -.219E-05
   0.216E+02 0.160E+02 -.301E+01   -.237E+02 -.176E+02 0.442E+01   0.212E+01 0.157E+01 -.141E+01   -.251E-05 -.187E-05 -.219E-05
   0.216E+02 0.160E+02 -.301E+01   -.237E+02 -.176E+02 0.442E+01   0.212E+01 0.157E+01 -.141E+01   -.251E-05 -.187E-05 -.219E-05
   0.216E+02 0.160E+02 -.301E+01   -.237E+02 -.176E+02 0.442E+01   0.212E+01 0.157E+01 -.141E+01   -.251E-05 -.187E-05 -.219E-05
   0.216E+02 0.160E+02 -.301E+01   -.237E+02 -.176E+02 0.442E+01   0.212E+01 0.157E+01 -.141E+01   -.251E-05 -.187E-05 -.219E-05
   0.216E+02 0.160E+02 -.301E+01   -.237E+02 -.176E+02 0.442E+01   0.212E+01 0.157E+01 -.141E+01   -.251E-05 -.187E-05 -.219E-05
   0.120E+02 -.157E+02 0.185E+02   -.129E+02 0.182E+02 -.199E+02   0.883E+00 -.251E+01 0.136E+01   -.207E-05 -.392E-06 -.319E-05
   0.120E+02 -.157E+02 0.185E+02   -.129E+02 0.182E+02 -.199E+02   0.883E+00 -.251E+01 0.136E+01   -.207E-05 -.392E-06 -.319E-05
   0.120E+02 -.157E+02 0.185E+02   -.129E+02 0.182E+02 -.199E+02   0.883E+00 -.251E+01 0.136E+01   -.207E-05 -.392E-06 -.319E-05
   0.120E+02 -.157E+02 0.185E+02   -.129E+02 0.182E+02 -.199E+02   0.883E+00 -.251E+01 0.136E+01   -.207E-05 -.392E-06 -.319E-05
   0.120E+02 -.157E+02 0.185E+02   -.129E+02 0.182E+02 -.199E+02   0.883E+00 -.251E+01 0.136E+01   -.207E-05 -.392E-06 -.319E-05
   0.120E+02 -.157E+02 0.185E+02   -.129E+02 0.182E+02 -.199E+02   0.883E+00 -.251E+01 0.136E+01   -.207E-05 -.392E-06 -.319E-05
   0.120E+02 -.157E+02 0.185E+02   -.129E+02 0.182E+02 -.199E+02   0.883E+00 -.251E+01 0.136E+01   -.207E-05 -.392E-06 -.319E-05
   0.120E+02 -.157E+02 0.185E+02   -.129E+02 0.182E+02 -.199E+02   0.883E+00 -.251E+01 0.136E+01   -.207E-05 -.392E-06 -.319E-05
   0.115E+02 -.160E+02 -.185E+02   -.137E+02 0.176E+02 0.199E+02   0.215E+01 -.157E+01 -.136E+01   0.974E-06 0.187E-05 0.319E-05
   0.115E+02 -.160E+02 -.185E+02   -.137E+02 0.176E+02 0.199E+02   0.215E+01 -.157E+01 -.136E+01   0.974E-06 0.187E-05 0.319E-05
   0.115E+02 -.160E+02 -.185E+02   -.137E+02 0.176E+02 0.199E+02   0.215E+01 -.157E+01 -.136E+01   0.974E-06 0.187E-05 0.319E-05
   0.115E+02 -.160E+02 -.185E+02   -.137E+02 0.176E+02 0.199E+02   0.215E+01 -.157E+01 -.136E+01   0.974E-06 0.187E-05 0.319E-05
   0.115E+02 -.160E+02 -.185E+02   -.137E+02 0.176E+02 0.199E+02   0.215E+01 -.157E+01 -.136E+01   0.974E-06 0.187E-05 0.319E-05
   0.115E+02 -.160E+02 -.185E+02   -.137E+02 0.176E+02 0.199E+02   0.215E+01 -.157E+01 -.136E+01   0.974E-06 0.187E-05 0.319E-05
   0.115E+02 -.160E+02 -.185E+02   -.137E+02 0.176E+02 0.199E+02   0.215E+01 -.157E+01 -.136E+01   0.974E-06 0.187E-05 0.319E-05
   0.115E+02 -.160E+02 -.185E+02   -.137E+02 0.176E+02 0.199E+02   0.215E+01 -.157E+01 -.136E+01   0.974E-06 0.187E-05 0.319E-05
   -.216E+02 -.160E+02 0.301E+01   0.237E+02 0.176E+02 -.442E+01   -.212E+01 -.157E+01 0.141E+01   0.251E-05 0.187E-05 0.219E-05
   -.216E+02 -.160E+02 0.301E+01   0.237E+02 0.176E+02 -.442E+01   -.212E+01 -.157E+01 0.141E+01   0.251E-05 0.187E-05 0.219E-05
   -.216E+02 -.160E+02 0.301E+01   0.237E+02 0.176E+02 -.442E+01   -.212E+01 -.157E+01 0.141E+01   0.251E-05 0.187E-05 0.219E-05
   -.216E+02 -.160E+02 0.301E+01   0.237E+02 0.176E+02 -.442E+01   -.212E+01 -.157E+01 0.141E+01   0.251E-05 0.187E-05 0.219E-05
   -.216E+02 -.160E+02 0.301E+01   0.237E+02 0.176E+02 -.442E+01   -.212E+01 -.157E+01 0.141E+01   0.251E-05 0.187E-05 0.219E-05
   -.216E+02 -.160E+02 0.301E+01   0.237E+02 0.176E+02 -.442E+01   -.212E+01 -.157E+01 0.141E+01   0.251E-05 0.187E-05 0.219E-05
   -.216E+02 -.160E+02 0.301E+01   0.237E+02 0.176E+02 -.442E+01   -.212E+01 -.157E+01 0.141E+01   0.251E-05 0.187E-05 0.219E-05
   -.216E+02 -.160E+02 0.301E+01   0.237E+02 0.176E+02 -.442E+01   -.212E+01 -.157E+01 0.141E+01   0.251E-05 0.187E-05 0.219E-05
   -.120E+02 0.157E+02 -.185E+02   0.129E+02 -.182E+02 0.199E+02   -.883E+00 0.251E+01 -.136E+01   0.207E-05 0.392E-06 0.319E-05
   -.120E+02 0.157E+02 -.185E+02   0.129E+02 -.182E+02 0.199E+02   -.883E+00 0.251E+01 -.136E+01   0.207E-05 0.392E-06 0.319E-05
   -.120E+02 0.157E+02 -.185E+02   0.129E+02 -.182E+02 0.199E+02   -.883E+00 0.251E+01 -.136E+01   0.207E-05 0.392E-06 0.319E-05
   -.120E+02 0.157E+02 -.185E+02   0.129E+02 -.182E+02 0.199E+02   -.883E+00 0.251E+01 -.136E+01   0.207E-05 0.392E-06 0.319E-05
   -.120E+02 0.157E+02 -.185E+02   0.129E+02 -.182E+02 0.199E+02   -.883E+00 0.251E+01 -.136E+01   0.207E-05 0.392E-06 0.319E-05
   -.120E+02 0.157E+02 -.185E+02   0.129E+02 -.182E+02 0.199E+02   -.883E+00 0.251E+01 -.136E+01   0.207E-05 0.392E-06 0.319E-05
   -.120E+02 0.157E+02 -.185E+02   0.129E+02 -.182E+02 0.199E+02   -.883E+00 0.251E+01 -.136E+01   0.207E-05 0.392E-06 0.319E-05
   -.120E+02 0.157E+02 -.185E+02   0.129E+02 -.182E+02 0.199E+02   -.883E+00 0.251E+01 -.136E+01   0.207E-05 0.392E-06 0.319E-05
   0.387E+02 0.591E+01 0.260E+02   -.433E+02 -.595E+01 -.281E+02   0.461E+01 0.343E-01 0.210E+01   -.374E-05 -.656E-06 -.263E-05
   0.387E+02 0.591E+01 0.260E+02   -.433E+02 -.595E+01 -.281E+02   0.461E+01 0.343E-01 0.210E+01   -.374E-05 -.656E-06 -.263E-05
   0.387E+02 0.591E+01 0.260E+02   -.433E+02 -.595E+01 -.281E+02   0.461E+01 0.343E-01 0.210E+01   -.374E-05 -.656E-06 -.263E-05
   0.387E+02 0.591E+01 0.260E+02   -.433E+02 -.595E+01 -.281E+02   0.461E+01 0.343E-01 0.210E+01   -.374E-05 -.656E-06 -.263E-05
   0.387E+02 0.591E+01 0.260E+02   -.433E+02 -.595E+01 -.281E+02   0.461E+01 0.343E-01 0.210E+01   -.374E-05 -.656E-06 -.263E-05
   0.387E+02 0.591E+01 0.260E+02   -.433E+02 -.595E+01 -.281E+02   0.461E+01 0.343E-01 0.210E+01   -.374E-05 -.656E-06 -.263E-05
   0.387E+02 0.591E+01 0.260E+02   -.433E+02 -.595E+01 -.281E+02   0.461E+01 0.343E-01 0.210E+01   -.374E-05 -.656E-06 -.263E-05
   0.387E+02 0.591E+01 0.260E+02   -.433E+02 -.595E+01 -.281E+02   0.461E+01 0.343E-01 0.210E+01   -.374E-05 -.656E-06 -.263E-05
   0.796E+01 0.591E+01 0.459E+02   -.801E+01 -.595E+01 -.510E+02   0.462E-01 0.343E-01 0.506E+01   -.883E-06 -.656E-06 -.449E-05
   0.796E+01 0.591E+01 0.459E+02   -.801E+01 -.595E+01 -.510E+02   0.462E-01 0.343E-01 0.506E+01   -.883E-06 -.656E-06 -.449E-05
   0.796E+01 0.591E+01 0.459E+02   -.801E+01 -.595E+01 -.510E+02   0.462E-01 0.343E-01 0.506E+01   -.883E-06 -.656E-06 -.449E-05
   0.796E+01 0.591E+01 0.459E+02   -.801E+01 -.595E+01 -.510E+02   0.462E-01 0.343E-01 0.506E+01   -.883E-06 -.656E-06 -.449E-05
[...]
   0.166E+02 0.123E+02 0.256E+02   -.166E+02 -.123E+02 -.256E+02   0.119E-02 0.882E-03 0.183E-02   -.981E-05 -.728E-05 -.151E-04
   0.166E+02 0.123E+02 0.256E+02   -.166E+02 -.123E+02 -.256E+02   0.119E-02 0.882E-03 0.183E-02   -.981E-05 -.728E-05 -.151E-04
   0.166E+02 0.123E+02 0.256E+02   -.166E+02 -.123E+02 -.256E+02   0.119E-02 0.882E-03 0.183E-02   -.981E-05 -.728E-05 -.151E-04
   0.166E+02 0.123E+02 0.256E+02   -.166E+02 -.123E+02 -.256E+02   0.119E-02 0.882E-03 0.183E-02   -.981E-05 -.728E-05 -.151E-04
   0.166E+02 0.123E+02 0.256E+02   -.166E+02 -.123E+02 -.256E+02   0.119E-02 0.882E-03 0.183E-02   -.981E-05 -.728E-05 -.151E-04
   0.166E+02 0.123E+02 0.256E+02   -.166E+02 -.123E+02 -.256E+02   0.119E-02 0.882E-03 0.183E-02   -.981E-05 -.728E-05 -.151E-04
   -.166E+02 -.123E+02 -.256E+02   0.166E+02 0.123E+02 0.256E+02   -.119E-02 -.882E-03 -.183E-02   0.981E-05 0.728E-05 0.151E-04
   -.166E+02 -.123E+02 -.256E+02   0.166E+02 0.123E+02 0.256E+02   -.119E-02 -.882E-03 -.183E-02   0.981E-05 0.728E-05 0.151E-04
   -.166E+02 -.123E+02 -.256E+02   0.166E+02 0.123E+02 0.256E+02   -.119E-02 -.882E-03 -.183E-02   0.981E-05 0.728E-05 0.151E-04
   -.166E+02 -.123E+02 -.256E+02   0.166E+02 0.123E+02 0.256E+02   -.119E-02 -.882E-03 -.183E-02   0.981E-05 0.728E-05 0.151E-04
   -.166E+02 -.123E+02 -.256E+02   0.166E+02 0.123E+02 0.256E+02   -.119E-02 -.882E-03 -.183E-02   0.981E-05 0.728E-05 0.151E-04
   -.166E+02 -.123E+02 -.256E+02   0.166E+02 0.123E+02 0.256E+02   -.119E-02 -.882E-03 -.183E-02   0.981E-05 0.728E-05 0.151E-04
   -.166E+02 -.123E+02 -.256E+02   0.166E+02 0.123E+02 0.256E+02   -.119E-02 -.882E-03 -.183E-02   0.981E-05 0.728E-05 0.151E-04
   -.166E+02 -.123E+02 -.256E+02   0.166E+02 0.123E+02 0.256E+02   -.119E-02 -.882E-03 -.183E-02   0.981E-05 0.728E-05 0.151E-04
   0.490E-11 -.104E-10 0.376E-10   -.639E-13 0.275E-12 0.133E-11   0.976E-14 0.446E-14 0.284E-13   -.115E-11 -.125E-12 -.995E-12

 POSITION                                       TOTAL-FORCE (eV/Angst)
      2.47292      3.44410      6.18049        -0.000382      0.000500      0.000566
      2.46119      3.43539     11.12318        -0.000382      0.000500      0.000566
      3.77201      7.77286      8.18163        -0.000382      0.000500      0.000566
      3.76028      7.76416     13.12431        -0.000382      0.000500      0.000566
      6.99241      3.43539      8.18163        -0.000382      0.000500      0.000566
      6.98068      3.42668     13.12431        -0.000382      0.000500      0.000566
      8.29149      7.76416     10.18277        -0.000382      0.000500      0.000566
      8.27976      7.75545     15.12545        -0.000382      0.000500      0.000566
      4.63877      3.44410      4.77448         0.000673      0.000500     -0.000118
      4.62704      3.43539      9.71717         0.000673      0.000500     -0.000118
      5.93786      7.77286      6.77562         0.000673      0.000500     -0.000118
      5.92613      7.76416     11.71830         0.000673      0.000500     -0.000118
      9.15825      3.43539      6.77562         0.000673      0.000500     -0.000118
      9.14652      3.42668     11.71830         0.000673      0.000500     -0.000118
     10.45734      7.76416      8.77676         0.000673      0.000500     -0.000118
     10.44561      7.75545     13.71944         0.000673      0.000500     -0.000118
      4.01222      1.37086      6.18049         0.000368     -0.000510      0.000566
      4.00049      1.36215     11.12318         0.000368     -0.000510      0.000566
      5.31131      5.69962      8.18163         0.000368     -0.000510      0.000566
      5.29958      5.69092     13.12431         0.000368     -0.000510      0.000566
      8.53170      1.36215      8.18163         0.000368     -0.000510      0.000566
      8.51997      1.35344     13.12431         0.000368     -0.000510      0.000566
      9.83079      5.69092     10.18277         0.000368     -0.000510      0.000566
      9.81906      5.68221     15.12545         0.000368     -0.000510      0.000566
      3.33392      0.86725      2.76447         0.000382     -0.000500     -0.000566
      3.32219      0.85854      7.70715         0.000382     -0.000500     -0.000566
      4.63300      5.19601      4.76560         0.000382     -0.000500     -0.000566
      4.62127      5.18730      9.70829         0.000382     -0.000500     -0.000566
      7.85340      0.85854      4.76560         0.000382     -0.000500     -0.000566
      7.84167      0.84983      9.70829         0.000382     -0.000500     -0.000566
      9.15249      5.18730      6.76674         0.000382     -0.000500     -0.000566
      9.14076      5.17859     11.70942         0.000382     -0.000500     -0.000566
      1.16807      0.86725      4.17048        -0.000673     -0.000500      0.000118
      1.15634      0.85854      9.11316        -0.000673     -0.000500      0.000118
      2.46716      5.19601      6.17161        -0.000673     -0.000500      0.000118
      2.45543      5.18730     11.11430        -0.000673     -0.000500      0.000118
      5.68756      0.85854      6.17161        -0.000673     -0.000500      0.000118
      5.67583      0.84983     11.11430        -0.000673     -0.000500      0.000118
      6.98664      5.18730      8.17275        -0.000673     -0.000500      0.000118
      6.97491      5.17859     13.11543        -0.000673     -0.000500      0.000118
      1.79462      2.94049      2.76447        -0.000368      0.000510     -0.000566
      1.78289      2.93178      7.70715        -0.000368      0.000510     -0.000566
      3.09371      7.26925      4.76560        -0.000368      0.000510     -0.000566
      3.08198      7.26054      9.70829        -0.000368      0.000510     -0.000566
      6.31410      2.93178      4.76560        -0.000368      0.000510     -0.000566
      6.30237      2.92307      9.70829        -0.000368      0.000510     -0.000566
      7.61319      7.26054      6.76674        -0.000368      0.000510     -0.000566
      7.60146      7.25183     11.70942        -0.000368      0.000510     -0.000566
      3.01613     -0.02119      1.31281        -0.001306      0.001025      0.000930
      3.00440     -0.02989      6.25550        -0.001306      0.001025      0.000930
      4.31522      4.30758      3.31395        -0.001306      0.001025      0.000930
      4.30349      4.29887      8.25664        -0.001306      0.001025      0.000930
      7.53562     -0.02989      3.31395        -0.001306      0.001025      0.000930
      7.52389     -0.03860      8.25664        -0.001306      0.001025      0.000930
      8.83470      4.29887      5.31509        -0.001306      0.001025      0.000930
      8.82297      4.29016     10.25777        -0.001306      0.001025      0.000930
     -0.02853     -0.02119      3.28934         0.001381      0.001025     -0.000814
     -0.04026     -0.02989      8.23202         0.001381      0.001025     -0.000814
      1.27055      4.30758      5.29047         0.001381      0.001025     -0.000814
      1.25882      4.29887     10.23316         0.001381      0.001025     -0.000814
[...]
      3.61052      2.68067     10.52246         0.000715      0.000531      0.001101
      4.92134      7.01814      7.58091         0.000715      0.000531      0.001101
      4.90961      7.00943     12.52360         0.000715      0.000531      0.001101
      8.14173      2.68067      7.58091         0.000715      0.000531      0.001101
      8.13000      2.67196     12.52360         0.000715      0.000531      0.001101
      9.44082      7.00943      9.58205         0.000715      0.000531      0.001101
      9.42909      7.00072     14.52474         0.000715      0.000531      0.001101
      2.18459      1.62197      3.36518        -0.000715     -0.000531     -0.001101
      2.17286      1.61326      8.30787        -0.000715     -0.000531     -0.001101
      3.48368      5.95073      5.36632        -0.000715     -0.000531     -0.001101
      3.47195      5.94203     10.30900        -0.000715     -0.000531     -0.001101
      6.70407      1.61326      5.36632        -0.000715     -0.000531     -0.001101
      6.69234      1.60455     10.30900        -0.000715     -0.000531     -0.001101
      8.00316      5.94203      7.36745        -0.000715     -0.000531     -0.001101
      7.99143      5.93332     12.31014        -0.000715     -0.000531     -0.001101
    total drift:                                0.000000     -0.000000      0.000000

  FREE ENERGIE OF THE ION-ELECTRON SYSTEM (eV)
  free  energy   TOTEN  =      -785.81996830 eV

  energy  without entropy=     -785.81996830  energy(sigma->0) =     -785.81996830

 d Force = 0.1332188E-06[ 0.955E-07, 0.171E-06]  d Energy = 0.4532709E-05-0.440E-05
 d Force = 0.1429241E-01[ 0.143E-01, 0.143E-01]  d Ewald  = 0.2239387E-01-0.810E-02

 reached required accuracy - stopping structural energy minimisation
|           W    W    AA    RRRRR   N    N  II  N    N   GGGG   !!!           |
|           W    W   A  A   R    R  NN   N  II  NN   N  G    G  !!!           |
|           W    W  A    A  R    R  N N  N  II  N N  N  G       !!!           |
|           W WW W  AAAAAA  RRRRR   N  N N  II  N  N N  G  GGG   !            |
|           WW  WW  A    A  R   R   N   NN  II  N   NN  G    G                |
|           W    W  A    A  R    R  N    N  II  N    N   GGGG   !!!           |
|     Tetrahedron method does not include variations of the Fermi             |
|     occupations, so forces and stress will be inaccurate. We suggest        |
|     using a different smearing scheme ISMEAR = 1 or 2 for metals in         |
|     relaxations.                                                            |

 BZINTS: Fermi energy:    5.142789;  352.000000 electrons
         Band energy:-0.287982E+03;  BLOECHL correction:   -0.332643