 vasp.6.2.0 18Jan21 (build Feb 25 2021 07:51:20) complex
 executed on             LinuxPGI date 2022.05.17  21:13:51

 INCAR:
   ALGO = Fast
   PREC = Accurate
   EDIFF = 1E-6
   ENCUT = 700
   ISMEAR = -5
   IBRION = 2
   ISIF = 4
   LREAL = Auto
   LWAVE = False
   LCHARGE = False
   NSW = 300
   SIGMA = 0.05

 POTCAR:    PAW_PBE B 06Sep2000
 POTCAR:    PAW_PBE C 08Apr2002
 POTCAR:    PAW_PBE B 06Sep2000
   VRHFIN =B: s2p1

   TITEL  = PAW_PBE B 06Sep2000
   POMASS =   10.811; ZVAL   =    3.000    mass and valenz
   ENMAX  =  318.614; ENMIN  =  238.960 eV

 POTCAR:    PAW_PBE C 08Apr2002
   VRHFIN =C: s2p2

   TITEL  = PAW_PBE C 08Apr2002
   POMASS =   12.011; ZVAL   =    4.000    mass and valenz
   ENMAX  =  400.000; ENMIN  =  300.000 eV

 Optimization of the real space projectors (new method)

 maximal supplied QI-value         = 22.11
 optimisation between [QCUT,QGAM] = [ 13.49, 26.97] = [ 50.94,203.75] Ry
 Optimized for a Real-space Cutoff    1.14 Angstroem

   l    n(q)    QCUT    max X(q) W(low)/X(q) W(high)/X(q)  e(spline)
   0      9    13.487    53.033    0.17E-03    0.11E-03    0.20E-06
   0      9    13.487    34.740    0.17E-03    0.11E-03    0.20E-06
   1      9    13.487    30.949    0.61E-04    0.25E-04    0.11E-06
   1      9    13.487    19.518    0.55E-04    0.23E-04    0.10E-06
 Optimization of the real space projectors (new method)

 maximal supplied QI-value         = 25.13
 optimisation between [QCUT,QGAM] = [ 13.32, 26.89] = [ 49.69,202.52] Ry
 Optimized for a Real-space Cutoff    1.07 Angstroem

   l    n(q)    QCUT    max X(q) W(low)/X(q) W(high)/X(q)  e(spline)
   0      9    13.321   115.676    0.24E-03    0.18E-03    0.16E-06
   0      9    13.321    87.132    0.24E-03    0.18E-03    0.16E-06
   1      8    13.321     4.429    0.20E-03    0.27E-03    0.12E-06
   1      8    13.321     2.733    0.16E-03    0.21E-03    0.12E-06
  PAW_PBE B 06Sep2000                   :
  PAW_PBE C 08Apr2002                   :

 POSCAR: B96 C24
  positions in direct lattice
 exchange correlation table for  LEXCH =        8
   RHO(1)=    0.500       N(1)  =     2000
   RHO(2)=  100.500       N(2)  =     4000

 ion  position               nearest neighbor table
   1  0.158  0.404  0.404- 105 1.51  53 1.70  35 1.75  42 1.79  68 1.84  61 1.89
   2  0.158  0.404  0.904- 106 1.51  54 1.70  36 1.75  41 1.79  67 1.84  62 1.89
   3  0.158  0.904  0.404- 107 1.51  55 1.70  33 1.75  44 1.79  66 1.84  63 1.89
   4  0.158  0.904  0.904- 108 1.51  56 1.70  34 1.75  43 1.79  65 1.84  64 1.89
   5  0.658  0.404  0.404- 109 1.51  49 1.70  39 1.75  46 1.79  72 1.84  57 1.89
   6  0.658  0.404  0.904- 110 1.51  50 1.70  40 1.75  45 1.79  71 1.84  58 1.89
   7  0.658  0.904  0.404- 111 1.51  51 1.70  37 1.75  48 1.79  70 1.84  59 1.89
   8  0.658  0.904  0.904- 112 1.51  52 1.70  38 1.75  47 1.79  69 1.84  60 1.89
   9  0.402  0.402  0.157-  45 1.67 105 1.71  98 1.74  27 1.76  58 1.77  79 1.88
  10  0.402  0.402  0.657-  46 1.67 106 1.71  97 1.74  28 1.76  57 1.77  80 1.88
  11  0.402  0.902  0.157-  47 1.67 107 1.71 100 1.74  25 1.76  60 1.77  77 1.88
  12  0.402  0.902  0.657-  48 1.67 108 1.71  99 1.74  26 1.76  59 1.77  78 1.88
  13  0.902  0.402  0.157-  41 1.67 109 1.71 102 1.74  31 1.76  62 1.77  75 1.88
  14  0.902  0.402  0.657-  42 1.67 110 1.71 101 1.74  32 1.76  61 1.77  76 1.88
  15  0.902  0.902  0.157-  43 1.67 111 1.71 104 1.74  29 1.76  64 1.77  73 1.88
  16  0.902  0.902  0.657-  44 1.67 112 1.71 103 1.74  30 1.76  63 1.77  74 1.88
  17  0.402  0.157  0.402- 105 1.55  37 1.66  51 1.75  86 1.79  26 1.80  99 1.90
  18  0.402  0.157  0.902- 106 1.55  38 1.66  52 1.75  85 1.79  25 1.80 100 1.90
  19  0.402  0.657  0.402- 107 1.55  39 1.66  49 1.75  88 1.79  28 1.80  97 1.90
  20  0.402  0.657  0.902- 108 1.55  40 1.66  50 1.75  87 1.79  27 1.80  98 1.90
  21  0.902  0.157  0.402- 109 1.55  33 1.66  55 1.75  82 1.79  30 1.80 103 1.90
  22  0.902  0.157  0.902- 110 1.55  34 1.66  56 1.75  81 1.79  29 1.80 104 1.90
  23  0.902  0.657  0.402- 111 1.55  35 1.66  53 1.75  84 1.79  32 1.80 101 1.90
  24  0.902  0.657  0.902- 112 1.55  36 1.66  54 1.75  83 1.79  31 1.80 102 1.90
  25  0.341  0.097  0.097- 113 1.50  77 1.70  11 1.76 100 1.77  18 1.80  85 1.88
  26  0.341  0.097  0.597- 114 1.50  78 1.70  12 1.76  99 1.77  17 1.80  86 1.88
  27  0.341  0.597  0.097- 115 1.50  79 1.70   9 1.76  98 1.77  20 1.80  87 1.88
  28  0.341  0.597  0.597- 116 1.50  80 1.70  10 1.76  97 1.77  19 1.80  88 1.88
  29  0.841  0.097  0.097- 117 1.50  73 1.70  15 1.76 104 1.77  22 1.80  81 1.88
  30  0.841  0.097  0.597- 118 1.50  74 1.70  16 1.76 103 1.77  21 1.80  82 1.88
  31  0.841  0.597  0.097- 119 1.50  75 1.70  13 1.76 102 1.77  24 1.80  83 1.88
  32  0.841  0.597  0.597- 120 1.50  76 1.70  14 1.76 101 1.77  23 1.80  84 1.88
  33  0.099  0.097  0.344-  21 1.66 113 1.70   3 1.75  82 1.77  66 1.78  55 1.89
  34  0.099  0.097  0.844-  22 1.66 114 1.70   4 1.75  81 1.77  65 1.78  56 1.89
  35  0.099  0.597  0.344-  23 1.66 115 1.70   1 1.75  84 1.77  68 1.78  53 1.89
  36  0.099  0.597  0.844-  24 1.66 116 1.70   2 1.75  83 1.77  67 1.78  54 1.89
  37  0.599  0.097  0.344-  17 1.66 117 1.70   7 1.75  86 1.77  70 1.78  51 1.89
  38  0.599  0.097  0.844-  18 1.66 118 1.70   8 1.75  85 1.77  69 1.78  52 1.89
  39  0.599  0.597  0.344-  19 1.66 119 1.70   5 1.75  88 1.77  72 1.78  49 1.89
  40  0.599  0.597  0.844-  20 1.66 120 1.70   6 1.75  87 1.77  71 1.78  50 1.89
  41  0.099  0.344  0.097- 113 1.55  13 1.67  75 1.75   2 1.79  62 1.80  67 1.95
  42  0.099  0.344  0.597- 114 1.55  14 1.67  76 1.75   1 1.79  61 1.80  68 1.95
  43  0.099  0.844  0.097- 115 1.55  15 1.67  73 1.75   4 1.79  64 1.80  65 1.95
  44  0.099  0.844  0.597- 116 1.55  16 1.67  74 1.75   3 1.79  63 1.80  66 1.95
  45  0.599  0.344  0.097- 117 1.55   9 1.67  79 1.75   6 1.79  58 1.80  71 1.95
  46  0.599  0.344  0.597- 118 1.55  10 1.67  80 1.75   5 1.79  57 1.80  72 1.95
  47  0.599  0.844  0.097- 119 1.55  11 1.67  77 1.75   8 1.79  60 1.80  69 1.95
  48  0.599  0.844  0.597- 120 1.55  12 1.67  78 1.75   7 1.79  59 1.80  70 1.95
  49  0.494  0.497  0.337-   5 1.70  79 1.74  19 1.75  97 1.77  57 1.86  39 1.89
  50  0.494  0.497  0.837-   6 1.70  80 1.74  20 1.75  98 1.77  58 1.86  40 1.89
  51  0.494  0.997  0.337-   7 1.70  77 1.74  17 1.75  99 1.77  59 1.86  37 1.89
  52  0.494  0.997  0.837-   8 1.70  78 1.74  18 1.75 100 1.77  60 1.86  38 1.89
  53  0.994  0.497  0.337-   1 1.70  75 1.74  23 1.75 101 1.77  61 1.86  35 1.89
  54  0.994  0.497  0.837-   2 1.70  76 1.74  24 1.75 102 1.77  62 1.86  36 1.89
  55  0.994  0.997  0.337-   3 1.70  73 1.74  21 1.75 103 1.77  63 1.86  33 1.89
  56  0.994  0.997  0.837-   4 1.70  74 1.74  22 1.75 104 1.77  64 1.86  34 1.89
  57  0.494  0.337  0.497-  97 1.64  10 1.77  86 1.79  46 1.80  49 1.86   5 1.89
  58  0.494  0.337  0.997-  98 1.64   9 1.77  85 1.79  45 1.80  50 1.86   6 1.89
  59  0.494  0.837  0.497-  99 1.64  12 1.77  88 1.79  48 1.80  51 1.86   7 1.89
  60  0.494  0.837  0.997- 100 1.64  11 1.77  87 1.79  47 1.80  52 1.86   8 1.89
[...]
 106  0.306  0.309  0.809-  90 1.48   2 1.51  18 1.55  10 1.71
 107  0.306  0.809  0.309-  91 1.48   3 1.51  19 1.55  11 1.71
 108  0.306  0.809  0.809-  92 1.48   4 1.51  20 1.55  12 1.71
 109  0.806  0.309  0.309-  93 1.48   5 1.51  21 1.55  13 1.71
 110  0.806  0.309  0.809-  94 1.48   6 1.51  22 1.55  14 1.71
 111  0.806  0.809  0.309-  95 1.48   7 1.51  23 1.55  15 1.71
 112  0.806  0.809  0.809-  96 1.48   8 1.51  24 1.55  16 1.71
 113  0.191  0.189  0.189-  89 1.47  25 1.50  41 1.55  33 1.70
 114  0.191  0.189  0.689-  90 1.47  26 1.50  42 1.55  34 1.70
 115  0.191  0.689  0.189-  91 1.47  27 1.50  43 1.55  35 1.70
 116  0.191  0.689  0.689-  92 1.47  28 1.50  44 1.55  36 1.70
 117  0.691  0.189  0.189-  93 1.47  29 1.50  45 1.55  37 1.70
 118  0.691  0.189  0.689-  94 1.47  30 1.50  46 1.55  38 1.70
 119  0.691  0.689  0.189-  95 1.47  31 1.50  47 1.55  39 1.70
 120  0.691  0.689  0.689-  96 1.47  32 1.50  48 1.55  40 1.70

  Warning from LATTYP: Got some problem with cell dimensions!
  Tried to take original basis but could not verify dimensions!
  LATTYP: Found a triclinic cell.
 ALAT       =    10.7763612504
 B/A-ratio  =     0.9552160853
 C/A-ratio  =     0.9658531475
 COS(alpha) =     0.0170337189
 COS(beta)  =     0.4019193857
 COS(gamma) =     0.5364412243

  Lattice vectors:

 A1 = (   4.1326780000,   8.9823410000,   4.2858470000)
 A2 = (  -5.1144400000,   8.9327990000,   0.0947040000)
 A3 = (  -0.0399190000,   0.0711050000,  10.4080630000)

Analysis of symmetry for initial positions (statically):
 Subroutine PRICEL returns following result:

[...]

   8 primitive cells build up your supercell.

 Routine SETGRP: Setting up the symmetry group for a
 triclinic supercell.

 Subroutine GETGRP returns: Found  1 space group operations
 (whereof  1 operations were pure point group operations)
 out of a pool of  2 trial point group operations.

The static configuration has the point symmetry C_1 .

Analysis of symmetry for dynamics (positions and initial velocities):
 Subroutine PRICEL returns following result:

  Warning from LATTYP: Got some problem with cell dimensions!
  Tried to take original basis but could not verify dimensions!
  LATTYP: Found a triclinic cell.
 ALAT       =     5.3881806252
 B/A-ratio  =     0.9552160853
 C/A-ratio  =     0.9658531475
 COS(alpha) =     0.0170337189
 COS(beta)  =     0.4019193857
 COS(gamma) =     0.5364412243

  Lattice vectors:

 A1 = (   2.0663390000,   4.4911705000,   2.1429235000)
 A2 = (  -2.5572200000,   4.4663995000,   0.0473520000)
 A3 = (  -0.0199595000,   0.0355525000,   5.2040315000)

   8 primitive cells build up your supercell.

 Routine SETGRP: Setting up the symmetry group for a
 triclinic supercell.

 Subroutine GETGRP returns: Found  1 space group operations
 (whereof  1 operations were pure point group operations)
 out of a pool of  2 trial point group operations.

The dynamic configuration has the point symmetry C_1 .

 Subroutine INISYM returns: Found  1 space group operations
 (whereof  1 operations are pure point group operations),
 and found     8 'primitive' translations

                                     Primitive cell

  volume of cell :     107.7848

  direct lattice vectors                    reciprocal lattice vectors
     2.066339000  4.491170500  2.142923500     0.215629605  0.123458082 -0.000016407
    -2.557220000  4.466399500  0.047352000    -0.216134373  0.100163121 -0.001513247
    -0.019959500  0.035552500  5.204031500    -0.086825638 -0.051749139  0.192179239

  length of vectors
     5.388180625  5.146876804  5.204191216     0.248471377  0.238220503  0.217139413

  position of ions in fractional coordinates (direct lattice)
     0.123362000  0.684154000  0.807516000
     0.607940000  0.196736000  0.314440000
     0.117704000  0.196736000  0.804676000
     0.876062000  0.317268000  0.193330000
     0.391072000  0.802600000  0.687422000
     0.884822000  0.802600000  0.193672000
     0.983692000  0.011106000  0.673596000
     0.662490000  0.011106000  0.994798000
     0.347490000  0.658410000  0.005900000
     0.012460000  0.993050000  0.328724000
[...]
   -.179E+02 0.136E+02 0.947E+01   0.194E+02 -.146E+02 -.992E+01   -.155E+01 0.919E+00 0.449E+00   0.350E-04 0.321E-04 -.526E-04
   -.179E+02 0.136E+02 0.947E+01   0.194E+02 -.146E+02 -.992E+01   -.155E+01 0.919E+00 0.449E+00   0.354E-04 0.321E-04 -.528E-04
   -.179E+02 0.136E+02 0.947E+01   0.194E+02 -.146E+02 -.992E+01   -.155E+01 0.919E+00 0.449E+00   0.349E-04 0.323E-04 -.529E-04
   -.179E+02 0.136E+02 0.947E+01   0.194E+02 -.146E+02 -.992E+01   -.155E+01 0.919E+00 0.449E+00   0.350E-04 0.324E-04 -.527E-04
   -.179E+02 0.136E+02 0.947E+01   0.194E+02 -.146E+02 -.992E+01   -.155E+01 0.919E+00 0.449E+00   0.348E-04 0.325E-04 -.528E-04
   -.179E+02 0.136E+02 0.947E+01   0.194E+02 -.146E+02 -.992E+01   -.155E+01 0.919E+00 0.449E+00   0.353E-04 0.322E-04 -.530E-04
   -.179E+02 0.136E+02 0.947E+01   0.194E+02 -.146E+02 -.992E+01   -.155E+01 0.919E+00 0.449E+00   0.351E-04 0.322E-04 -.529E-04
   -.179E+02 0.136E+02 0.947E+01   0.194E+02 -.146E+02 -.992E+01   -.155E+01 0.919E+00 0.449E+00   0.352E-04 0.325E-04 -.527E-04
   0.150E+02 0.179E+02 -.215E+02   -.154E+02 -.194E+02 0.243E+02   0.346E+00 0.152E+01 -.283E+01   -.387E-04 -.587E-07 -.390E-04
   0.150E+02 0.179E+02 -.215E+02   -.154E+02 -.194E+02 0.243E+02   0.346E+00 0.152E+01 -.283E+01   -.386E-04 -.180E-06 -.389E-04
   0.150E+02 0.179E+02 -.215E+02   -.154E+02 -.194E+02 0.243E+02   0.346E+00 0.152E+01 -.283E+01   -.388E-04 -.114E-06 -.392E-04
   0.150E+02 0.179E+02 -.215E+02   -.154E+02 -.194E+02 0.243E+02   0.346E+00 0.152E+01 -.283E+01   -.389E-04 0.155E-06 -.389E-04
   0.150E+02 0.179E+02 -.215E+02   -.154E+02 -.194E+02 0.243E+02   0.346E+00 0.152E+01 -.283E+01   -.390E-04 0.838E-07 -.389E-04
   0.150E+02 0.179E+02 -.215E+02   -.154E+02 -.194E+02 0.243E+02   0.346E+00 0.152E+01 -.283E+01   -.390E-04 -.954E-07 -.389E-04
   0.150E+02 0.179E+02 -.215E+02   -.154E+02 -.194E+02 0.243E+02   0.346E+00 0.152E+01 -.283E+01   -.387E-04 -.145E-06 -.390E-04
   0.150E+02 0.179E+02 -.215E+02   -.154E+02 -.194E+02 0.243E+02   0.346E+00 0.152E+01 -.283E+01   -.387E-04 0.259E-06 -.389E-04
   -.347E+01 -.294E+02 0.115E+02   0.486E+01 0.323E+02 -.117E+02   -.139E+01 -.290E+01 0.258E+00   0.828E-04 0.164E-03 -.103E-03
   -.347E+01 -.294E+02 0.115E+02   0.486E+01 0.323E+02 -.117E+02   -.139E+01 -.290E+01 0.258E+00   0.829E-04 0.164E-03 -.103E-03
   -.347E+01 -.294E+02 0.115E+02   0.486E+01 0.323E+02 -.117E+02   -.139E+01 -.290E+01 0.258E+00   0.829E-04 0.164E-03 -.103E-03
   -.347E+01 -.294E+02 0.115E+02   0.486E+01 0.323E+02 -.117E+02   -.139E+01 -.290E+01 0.258E+00   0.829E-04 0.165E-03 -.103E-03
   -.347E+01 -.294E+02 0.115E+02   0.486E+01 0.323E+02 -.117E+02   -.139E+01 -.290E+01 0.258E+00   0.828E-04 0.164E-03 -.103E-03
   -.347E+01 -.294E+02 0.115E+02   0.486E+01 0.323E+02 -.117E+02   -.139E+01 -.290E+01 0.258E+00   0.830E-04 0.164E-03 -.103E-03
   -.347E+01 -.294E+02 0.115E+02   0.486E+01 0.323E+02 -.117E+02   -.139E+01 -.290E+01 0.258E+00   0.829E-04 0.164E-03 -.103E-03
   -.347E+01 -.294E+02 0.115E+02   0.486E+01 0.323E+02 -.117E+02   -.139E+01 -.290E+01 0.258E+00   0.830E-04 0.164E-03 -.103E-03
   0.114E+02 -.180E+02 -.193E+02   -.125E+02 0.198E+02 0.213E+02   0.106E+01 -.181E+01 -.200E+01   -.422E-04 -.162E-03 -.985E-05
   0.114E+02 -.180E+02 -.193E+02   -.125E+02 0.198E+02 0.213E+02   0.106E+01 -.181E+01 -.200E+01   -.424E-04 -.162E-03 -.945E-05
   0.114E+02 -.180E+02 -.193E+02   -.125E+02 0.198E+02 0.213E+02   0.106E+01 -.181E+01 -.200E+01   -.423E-04 -.162E-03 -.941E-05
   0.114E+02 -.180E+02 -.193E+02   -.125E+02 0.198E+02 0.213E+02   0.106E+01 -.181E+01 -.200E+01   -.420E-04 -.162E-03 -.966E-05
   0.114E+02 -.180E+02 -.193E+02   -.125E+02 0.198E+02 0.213E+02   0.106E+01 -.181E+01 -.200E+01   -.420E-04 -.162E-03 -.952E-05
   0.114E+02 -.180E+02 -.193E+02   -.125E+02 0.198E+02 0.213E+02   0.106E+01 -.181E+01 -.200E+01   -.423E-04 -.162E-03 -.935E-05
   0.114E+02 -.180E+02 -.193E+02   -.125E+02 0.198E+02 0.213E+02   0.106E+01 -.181E+01 -.200E+01   -.426E-04 -.162E-03 -.924E-05
   0.114E+02 -.180E+02 -.193E+02   -.125E+02 0.198E+02 0.213E+02   0.106E+01 -.181E+01 -.200E+01   -.421E-04 -.162E-03 -.962E-05
   -.172E+02 -.125E+02 0.882E+01   0.179E+02 0.128E+02 -.102E+02   -.766E+00 -.277E+00 0.136E+01   0.393E-04 0.438E-04 -.993E-04
   -.172E+02 -.125E+02 0.882E+01   0.179E+02 0.128E+02 -.102E+02   -.766E+00 -.277E+00 0.136E+01   0.393E-04 0.439E-04 -.995E-04
   -.172E+02 -.125E+02 0.882E+01   0.179E+02 0.128E+02 -.102E+02   -.766E+00 -.277E+00 0.136E+01   0.393E-04 0.444E-04 -.994E-04
   -.172E+02 -.125E+02 0.882E+01   0.179E+02 0.128E+02 -.102E+02   -.766E+00 -.277E+00 0.136E+01   0.395E-04 0.441E-04 -.993E-04
   -.172E+02 -.125E+02 0.882E+01   0.179E+02 0.128E+02 -.102E+02   -.766E+00 -.277E+00 0.136E+01   0.394E-04 0.442E-04 -.993E-04
   -.172E+02 -.125E+02 0.882E+01   0.179E+02 0.128E+02 -.102E+02   -.766E+00 -.277E+00 0.136E+01   0.392E-04 0.441E-04 -.996E-04
   -.172E+02 -.125E+02 0.882E+01   0.179E+02 0.128E+02 -.102E+02   -.766E+00 -.277E+00 0.136E+01   0.393E-04 0.439E-04 -.996E-04
   -.172E+02 -.125E+02 0.882E+01   0.179E+02 0.128E+02 -.102E+02   -.766E+00 -.277E+00 0.136E+01   0.393E-04 0.439E-04 -.995E-04
   -.505E+01 0.184E+02 -.127E+02   0.508E+01 -.200E+02 0.127E+02   -.333E-01 0.159E+01 0.642E-01   -.897E-04 -.940E-04 -.126E-05
   -.505E+01 0.184E+02 -.127E+02   0.508E+01 -.200E+02 0.127E+02   -.333E-01 0.159E+01 0.642E-01   -.900E-04 -.939E-04 -.130E-05
   -.505E+01 0.184E+02 -.127E+02   0.508E+01 -.200E+02 0.127E+02   -.333E-01 0.159E+01 0.642E-01   -.897E-04 -.937E-04 -.125E-05
   -.505E+01 0.184E+02 -.127E+02   0.508E+01 -.200E+02 0.127E+02   -.333E-01 0.159E+01 0.642E-01   -.899E-04 -.936E-04 -.143E-05
   -.505E+01 0.184E+02 -.127E+02   0.508E+01 -.200E+02 0.127E+02   -.333E-01 0.159E+01 0.642E-01   -.898E-04 -.938E-04 -.111E-05
   -.505E+01 0.184E+02 -.127E+02   0.508E+01 -.200E+02 0.127E+02   -.333E-01 0.159E+01 0.642E-01   -.901E-04 -.937E-04 -.131E-05
   -.505E+01 0.184E+02 -.127E+02   0.508E+01 -.200E+02 0.127E+02   -.333E-01 0.159E+01 0.642E-01   -.899E-04 -.938E-04 -.112E-05
   -.505E+01 0.184E+02 -.127E+02   0.508E+01 -.200E+02 0.127E+02   -.333E-01 0.159E+01 0.642E-01   -.900E-04 -.938E-04 -.122E-05
   -.101E+01 0.510E+01 0.541E+02   0.257E+01 -.540E+01 -.596E+02   -.156E+01 0.300E+00 0.549E+01   -.397E-04 -.995E-04 -.378E-04
   -.101E+01 0.510E+01 0.541E+02   0.257E+01 -.540E+01 -.596E+02   -.156E+01 0.300E+00 0.549E+01   -.398E-04 -.996E-04 -.381E-04
   -.101E+01 0.510E+01 0.541E+02   0.257E+01 -.540E+01 -.596E+02   -.156E+01 0.300E+00 0.549E+01   -.400E-04 -.995E-04 -.378E-04
   -.101E+01 0.510E+01 0.541E+02   0.257E+01 -.540E+01 -.596E+02   -.156E+01 0.300E+00 0.549E+01   -.399E-04 -.991E-04 -.377E-04
   -.101E+01 0.510E+01 0.541E+02   0.257E+01 -.540E+01 -.596E+02   -.156E+01 0.300E+00 0.549E+01   -.401E-04 -.993E-04 -.379E-04
   -.101E+01 0.510E+01 0.541E+02   0.257E+01 -.540E+01 -.596E+02   -.156E+01 0.300E+00 0.549E+01   -.399E-04 -.995E-04 -.378E-04
   -.101E+01 0.510E+01 0.541E+02   0.257E+01 -.540E+01 -.596E+02   -.156E+01 0.300E+00 0.549E+01   -.398E-04 -.997E-04 -.378E-04
   -.101E+01 0.510E+01 0.541E+02   0.257E+01 -.540E+01 -.596E+02   -.156E+01 0.300E+00 0.549E+01   -.399E-04 -.994E-04 -.380E-04
   0.148E+02 0.454E+02 0.260E+02   -.152E+02 -.507E+02 -.280E+02   0.420E+00 0.535E+01 0.197E+01   -.529E-04 0.711E-04 -.678E-04
   0.148E+02 0.454E+02 0.260E+02   -.152E+02 -.507E+02 -.280E+02   0.420E+00 0.535E+01 0.197E+01   -.533E-04 0.709E-04 -.682E-04
   0.148E+02 0.454E+02 0.260E+02   -.152E+02 -.507E+02 -.280E+02   0.420E+00 0.535E+01 0.197E+01   -.532E-04 0.710E-04 -.680E-04
   0.148E+02 0.454E+02 0.260E+02   -.152E+02 -.507E+02 -.280E+02   0.420E+00 0.535E+01 0.197E+01   -.534E-04 0.711E-04 -.678E-04
[...]
   -.151E+02 -.109E+02 -.241E+02   0.170E+02 0.132E+02 0.285E+02   -.198E+01 -.231E+01 -.441E+01   0.131E-03 -.116E-03 0.133E-03
   -.151E+02 -.109E+02 -.241E+02   0.170E+02 0.132E+02 0.285E+02   -.198E+01 -.231E+01 -.441E+01   0.131E-03 -.115E-03 0.133E-03
   -.151E+02 -.109E+02 -.241E+02   0.170E+02 0.132E+02 0.285E+02   -.198E+01 -.231E+01 -.441E+01   0.131E-03 -.115E-03 0.133E-03
   -.151E+02 -.109E+02 -.241E+02   0.170E+02 0.132E+02 0.285E+02   -.198E+01 -.231E+01 -.441E+01   0.132E-03 -.116E-03 0.133E-03
   -.151E+02 -.109E+02 -.241E+02   0.170E+02 0.132E+02 0.285E+02   -.198E+01 -.231E+01 -.441E+01   0.132E-03 -.116E-03 0.133E-03
   -.151E+02 -.109E+02 -.241E+02   0.170E+02 0.132E+02 0.285E+02   -.198E+01 -.231E+01 -.441E+01   0.132E-03 -.115E-03 0.133E-03
   0.204E+02 0.103E+02 0.261E+02   -.229E+02 -.128E+02 -.312E+02   0.255E+01 0.256E+01 0.509E+01   -.785E-03 -.135E-03 -.354E-03
   0.204E+02 0.103E+02 0.261E+02   -.229E+02 -.128E+02 -.312E+02   0.255E+01 0.256E+01 0.509E+01   -.784E-03 -.135E-03 -.353E-03
   0.204E+02 0.103E+02 0.261E+02   -.229E+02 -.128E+02 -.312E+02   0.255E+01 0.256E+01 0.509E+01   -.785E-03 -.134E-03 -.353E-03
   0.204E+02 0.103E+02 0.261E+02   -.229E+02 -.128E+02 -.312E+02   0.255E+01 0.256E+01 0.509E+01   -.785E-03 -.134E-03 -.353E-03
   0.204E+02 0.103E+02 0.261E+02   -.229E+02 -.128E+02 -.312E+02   0.255E+01 0.256E+01 0.509E+01   -.784E-03 -.134E-03 -.353E-03
   0.204E+02 0.103E+02 0.261E+02   -.229E+02 -.128E+02 -.312E+02   0.255E+01 0.256E+01 0.509E+01   -.785E-03 -.135E-03 -.353E-03
   0.204E+02 0.103E+02 0.261E+02   -.229E+02 -.128E+02 -.312E+02   0.255E+01 0.256E+01 0.509E+01   -.785E-03 -.135E-03 -.353E-03
   0.204E+02 0.103E+02 0.261E+02   -.229E+02 -.128E+02 -.312E+02   0.255E+01 0.256E+01 0.509E+01   -.785E-03 -.134E-03 -.353E-03
   -.648E+01 -.792E+01 -.149E+02   -.104E-11 0.155E-12 0.355E-13   0.650E+01 0.794E+01 0.149E+02   -.461E-02 -.339E-02 -.279E-02

 POSITION                                       TOTAL-FORCE (eV/Angst)
      2.77041      3.50744      6.58661         0.000168     -0.000156     -0.000031
      2.73557      3.56233     11.77402         0.000168     -0.000156     -0.000031
      4.44691      7.92354      8.73271         0.000168     -0.000156     -0.000031
      4.41207      7.97843     13.92012         0.000168     -0.000156     -0.000031
      7.34473      3.16271      8.66417         0.000168     -0.000156     -0.000031
      7.30989      3.21760     13.85158         0.000168     -0.000156     -0.000031
      9.02122      7.57881     10.81027         0.000168     -0.000156     -0.000031
      8.98638      7.63370     15.99768         0.000168     -0.000156     -0.000031
      5.00624      3.28480      5.02916         0.000008     -0.000135     -0.000366
      4.97140      3.33969     10.21657         0.000008     -0.000135     -0.000366
      6.68273      7.70090      7.17526         0.000008     -0.000135     -0.000366
      6.64790      7.75579     12.36267         0.000008     -0.000135     -0.000366
      9.58055      2.94007      7.10672         0.000008     -0.000135     -0.000366
      9.54572      2.99496     12.29413         0.000008     -0.000135     -0.000366
     11.25705      7.35617      9.25282         0.000008     -0.000135     -0.000366
     11.22221      7.41106     14.44023         0.000008     -0.000135     -0.000366
      4.17330      1.16281      6.50876        -0.000035     -0.000313      0.001185
      4.13846      1.21769     11.69617        -0.000035     -0.000313      0.001185
      5.84979      5.57891      8.65485        -0.000035     -0.000313      0.001185
      5.81495      5.63380     13.84227        -0.000035     -0.000313      0.001185
      8.74761      0.81808      8.58631        -0.000035     -0.000313      0.001185
      8.71277      0.87296     13.77372        -0.000035     -0.000313      0.001185
     10.42411      5.23418     10.73241        -0.000035     -0.000313      0.001185
     10.38927      5.28907     15.91982        -0.000035     -0.000313      0.001185
      3.44554      0.62127      2.82807         0.000129      0.000498      0.000200
      3.41070      0.67615      8.01548         0.000129      0.000498      0.000200
      5.12204      5.03737      4.97417         0.000129      0.000498      0.000200
      5.08720      5.09226     10.16158         0.000129      0.000498      0.000200
      8.01986      0.27654      4.90563         0.000129      0.000498      0.000200
      7.98502      0.33142     10.09304         0.000129      0.000498      0.000200
      9.69635      4.69264      7.05173         0.000129      0.000498      0.000200
      9.66151      4.74753     12.23914         0.000129      0.000498      0.000200
      1.21134      0.83271      4.39472        -0.000313     -0.000584      0.000098
      1.17651      0.88760      9.58213        -0.000313     -0.000584      0.000098
      2.88784      5.24881      6.54082        -0.000313     -0.000584      0.000098
      2.85300      5.30370     11.72823        -0.000313     -0.000584      0.000098
      5.78566      0.48798      6.47227        -0.000313     -0.000584      0.000098
      5.75082      0.54287     11.65968        -0.000313     -0.000584      0.000098
      7.46216      4.90408      8.61837        -0.000313     -0.000584      0.000098
      7.42732      4.95897     13.80578        -0.000313     -0.000584      0.000098
      2.05237      2.97538      2.90059         0.000117      0.001054     -0.001685
      2.01753      3.03027      8.08800         0.000117      0.001054     -0.001685
      3.72887      7.39148      5.04669         0.000117      0.001054     -0.001685
      3.69403      7.44637     10.23410         0.000117      0.001054     -0.001685
      6.62669      2.63065      4.97814         0.000117      0.001054     -0.001685
      6.59185      2.68553     10.16555         0.000117      0.001054     -0.001685
      8.30318      7.04675      7.12424         0.000117      0.001054     -0.001685
      8.26834      7.10164     12.31165         0.000117      0.001054     -0.001685
      6.16618      4.09644      7.68923        -0.000545      0.000282     -0.000040
      6.13134      4.15133     12.87664        -0.000545      0.000282     -0.000040
      7.84267      8.51255      9.83533        -0.000545      0.000282     -0.000040
      7.80783      8.56743     15.02274        -0.000545      0.000282     -0.000040
     10.74049      3.75171      9.76678        -0.000545      0.000282     -0.000040
     10.70565      3.80660     14.95419        -0.000545      0.000282     -0.000040
     12.41699      8.16781     11.91288        -0.000545      0.000282     -0.000040
     12.38215      8.22270     17.10029        -0.000545      0.000282     -0.000040
      5.61533      2.69239      8.66837        -0.000383     -0.000071      0.000555
      5.58049      2.74728     13.85578        -0.000383     -0.000071      0.000555
      7.29182      7.10849     10.81447        -0.000383     -0.000071      0.000555
      7.25698      7.16338     16.00188        -0.000383     -0.000071      0.000555
[...]
      3.76230      2.61656     10.99480        -0.000126      0.000317     -0.000615
      5.47363      6.97778      7.95349        -0.000126      0.000317     -0.000615
      5.43880      7.03266     13.14090        -0.000126      0.000317     -0.000615
      8.37145      2.21694      7.88494        -0.000126      0.000317     -0.000615
      8.33662      2.27183     13.07235        -0.000126      0.000317     -0.000615
     10.04795      6.63304     10.03104        -0.000126      0.000317     -0.000615
     10.01311      6.68793     15.21845        -0.000126      0.000317     -0.000615
      2.37328      1.53745      3.53928         0.000916     -0.000222      0.000542
      2.33844      1.59234      8.72669         0.000916     -0.000222      0.000542
      4.04978      5.95355      5.68538         0.000916     -0.000222      0.000542
      4.01494      6.00844     10.87279         0.000916     -0.000222      0.000542
      6.94760      1.19272      5.61684         0.000916     -0.000222      0.000542
      6.91276      1.24761     10.80425         0.000916     -0.000222      0.000542
      8.62409      5.60882      7.76294         0.000916     -0.000222      0.000542
      8.58926      5.66371     12.95035         0.000916     -0.000222      0.000542
    total drift:                                0.008544      0.012669     -0.008310

  FREE ENERGIE OF THE ION-ELECTRON SYSTEM (eV)
  free  energy   TOTEN  =      -877.27878279 eV

  energy  without entropy=     -877.27878279  energy(sigma->0) =     -877.27878279

 d Force = 0.6057239E-06[ 0.123E-07, 0.120E-05]  d Energy = 0.6983209E-06-0.926E-07
 d Force =-0.2588496E-01[-0.259E-01,-0.259E-01]  d Ewald  =-0.2579967E-01-0.853E-04

 reached required accuracy - stopping structural energy minimisation
 BZINTS: Fermi energy:    8.091751;  384.000000 electrons
         Band energy:-0.355647E+03;  BLOECHL correction:    0.000000