 vasp.6.2.0 18Jan21 (build Feb 25 2021 07:51:20) complex
 executed on             LinuxPGI date 2022.04.06  17:57:34

 INCAR:
   ALGO = Fast
   PREC = Accurate
   EDIFF = 1E-6
   ENCUT = 700
   ISMEAR = -5
   IBRION = 2
   ISIF = 4
   LREAL = Auto
   LWAVE = False
   LCHARGE = False
   NSW = 300
   SIGMA = 0.05

 POTCAR:    PAW_PBE B 06Sep2000
 POTCAR:    PAW_PBE C 08Apr2002
 POTCAR:    PAW_PBE B 06Sep2000
   VRHFIN =B: s2p1

   TITEL  = PAW_PBE B 06Sep2000
   POMASS =   10.811; ZVAL   =    3.000    mass and valenz
   ENMAX  =  318.614; ENMIN  =  238.960 eV

 POTCAR:    PAW_PBE C 08Apr2002
   VRHFIN =C: s2p2

   TITEL  = PAW_PBE C 08Apr2002
   POMASS =   12.011; ZVAL   =    4.000    mass and valenz
   ENMAX  =  400.000; ENMIN  =  300.000 eV

 Optimization of the real space projectors (new method)

 maximal supplied QI-value         = 22.11
 optimisation between [QCUT,QGAM] = [ 13.49, 26.97] = [ 50.94,203.75] Ry
 Optimized for a Real-space Cutoff    1.14 Angstroem

   l    n(q)    QCUT    max X(q) W(low)/X(q) W(high)/X(q)  e(spline)
   0      9    13.487    53.033    0.17E-03    0.11E-03    0.20E-06
   0      9    13.487    34.740    0.17E-03    0.11E-03    0.20E-06
   1      9    13.487    30.949    0.61E-04    0.25E-04    0.11E-06
   1      9    13.487    19.518    0.55E-04    0.23E-04    0.10E-06
 Optimization of the real space projectors (new method)

 maximal supplied QI-value         = 25.13
 optimisation between [QCUT,QGAM] = [ 13.32, 26.89] = [ 49.69,202.52] Ry
 Optimized for a Real-space Cutoff    1.07 Angstroem

   l    n(q)    QCUT    max X(q) W(low)/X(q) W(high)/X(q)  e(spline)
   0      9    13.321   115.676    0.24E-03    0.18E-03    0.16E-06
   0      9    13.321    87.132    0.24E-03    0.18E-03    0.16E-06
   1      8    13.321     4.429    0.20E-03    0.27E-03    0.12E-06
   1      8    13.321     2.733    0.16E-03    0.21E-03    0.12E-06
  PAW_PBE B 06Sep2000                   :
  PAW_PBE C 08Apr2002                   :

 POSCAR: B96 C16
  positions in direct lattice
 exchange correlation table for  LEXCH =        8
   RHO(1)=    0.500       N(1)  =     2000
   RHO(2)=  100.500       N(2)  =     4000

 ion  position               nearest neighbor table
   1  0.160  0.401  0.401-  97 1.50  76 1.72  42 1.73  35 1.73  66 1.75  59 1.75
   2  0.160  0.401  0.901-  98 1.50  75 1.72  41 1.73  36 1.73  65 1.75  60 1.75
   3  0.160  0.901  0.401-  99 1.50  74 1.72  44 1.73  33 1.73  68 1.75  57 1.75
   4  0.160  0.901  0.901- 100 1.50  73 1.72  43 1.73  34 1.73  67 1.75  58 1.75
   5  0.660  0.401  0.401- 101 1.50  80 1.72  46 1.73  39 1.73  70 1.75  63 1.75
   6  0.660  0.401  0.901- 102 1.50  79 1.72  45 1.73  40 1.73  69 1.75  64 1.75
   7  0.660  0.901  0.401- 103 1.50  78 1.72  48 1.73  37 1.73  72 1.75  61 1.75
   8  0.660  0.901  0.901- 104 1.50  77 1.72  47 1.73  38 1.73  71 1.75  62 1.75
   9  0.401  0.401  0.160-  97 1.50  87 1.72  45 1.73  27 1.73  51 1.75  69 1.75
  10  0.401  0.401  0.660-  98 1.50  88 1.72  46 1.73  28 1.73  52 1.75  70 1.75
  11  0.401  0.901  0.160-  99 1.50  85 1.72  47 1.73  25 1.73  49 1.75  71 1.75
  12  0.401  0.901  0.660- 100 1.50  86 1.72  48 1.73  26 1.73  50 1.75  72 1.75
  13  0.901  0.401  0.160- 101 1.50  83 1.72  41 1.73  31 1.73  55 1.75  65 1.75
  14  0.901  0.401  0.660- 102 1.50  84 1.72  42 1.73  32 1.73  56 1.75  66 1.75
  15  0.901  0.901  0.160- 103 1.50  81 1.72  43 1.73  29 1.73  53 1.75  67 1.75
  16  0.901  0.901  0.660- 104 1.50  82 1.72  44 1.73  30 1.73  54 1.75  68 1.75
  17  0.401  0.160  0.401-  97 1.50  94 1.72  26 1.73  37 1.73  50 1.75  61 1.75
  18  0.401  0.160  0.901-  98 1.50  93 1.72  25 1.73  38 1.73  49 1.75  62 1.75
  19  0.401  0.660  0.401-  99 1.50  96 1.72  28 1.73  39 1.73  52 1.75  63 1.75
  20  0.401  0.660  0.901- 100 1.50  95 1.72  27 1.73  40 1.73  51 1.75  64 1.75
  21  0.901  0.160  0.401- 101 1.50  90 1.72  30 1.73  33 1.73  54 1.75  57 1.75
  22  0.901  0.160  0.901- 102 1.50  89 1.72  29 1.73  34 1.73  53 1.75  58 1.75
  23  0.901  0.660  0.401- 103 1.50  92 1.72  32 1.73  35 1.73  56 1.75  59 1.75
  24  0.901  0.660  0.901- 104 1.50  91 1.72  31 1.73  36 1.73  55 1.75  60 1.75
  25  0.340  0.099  0.099- 105 1.50  49 1.72  18 1.73  11 1.73  93 1.75  85 1.75
  26  0.340  0.099  0.599- 106 1.50  50 1.72  17 1.73  12 1.73  94 1.75  86 1.75
  27  0.340  0.599  0.099- 107 1.50  51 1.72  20 1.73   9 1.73  95 1.75  87 1.75
  28  0.340  0.599  0.599- 108 1.50  52 1.72  19 1.73  10 1.73  96 1.75  88 1.75
  29  0.840  0.099  0.099- 109 1.50  53 1.72  22 1.73  15 1.73  89 1.75  81 1.75
  30  0.840  0.099  0.599- 110 1.50  54 1.72  21 1.73  16 1.73  90 1.75  82 1.75
  31  0.840  0.599  0.099- 111 1.50  55 1.72  24 1.73  13 1.73  91 1.75  83 1.75
  32  0.840  0.599  0.599- 112 1.50  56 1.72  23 1.73  14 1.73  92 1.75  84 1.75
  33  0.099  0.099  0.340- 105 1.50  57 1.72  21 1.73   3 1.73  74 1.75  90 1.75
  34  0.099  0.099  0.840- 106 1.50  58 1.72  22 1.73   4 1.73  73 1.75  89 1.75
  35  0.099  0.599  0.340- 107 1.50  59 1.72  23 1.73   1 1.73  76 1.75  92 1.75
  36  0.099  0.599  0.840- 108 1.50  60 1.72  24 1.73   2 1.73  75 1.75  91 1.75
  37  0.599  0.099  0.340- 109 1.50  61 1.72  17 1.73   7 1.73  78 1.75  94 1.75
  38  0.599  0.099  0.840- 110 1.50  62 1.72  18 1.73   8 1.73  77 1.75  93 1.75
  39  0.599  0.599  0.340- 111 1.50  63 1.72  19 1.73   5 1.73  80 1.75  96 1.75
  40  0.599  0.599  0.840- 112 1.50  64 1.72  20 1.73   6 1.73  79 1.75  95 1.75
  41  0.099  0.340  0.099- 105 1.50  65 1.72   2 1.73  13 1.73  75 1.75  83 1.75
  42  0.099  0.340  0.599- 106 1.50  66 1.72   1 1.73  14 1.73  76 1.75  84 1.75
  43  0.099  0.840  0.099- 107 1.50  67 1.72   4 1.73  15 1.73  73 1.75  81 1.75
  44  0.099  0.840  0.599- 108 1.50  68 1.72   3 1.73  16 1.73  74 1.75  82 1.75
  45  0.599  0.340  0.099- 109 1.50  69 1.72   6 1.73   9 1.73  79 1.75  87 1.75
  46  0.599  0.340  0.599- 110 1.50  70 1.72   5 1.73  10 1.73  80 1.75  88 1.75
  47  0.599  0.840  0.099- 111 1.50  71 1.72   8 1.73  11 1.73  77 1.75  85 1.75
  48  0.599  0.840  0.599- 112 1.50  72 1.72   7 1.73  12 1.73  78 1.75  86 1.75
  49  0.332  0.000  0.000-  73 1.65  25 1.72  11 1.75  18 1.75  62 1.81  71 1.81
  50  0.332  0.000  0.500-  74 1.65  26 1.72  12 1.75  17 1.75  61 1.81  72 1.81
  51  0.332  0.500  0.000-  75 1.65  27 1.72   9 1.75  20 1.75  64 1.81  69 1.81
  52  0.332  0.500  0.500-  76 1.65  28 1.72  10 1.75  19 1.75  63 1.81  70 1.81
  53  0.832  0.000  0.000-  77 1.65  29 1.72  15 1.75  22 1.75  58 1.81  67 1.81
  54  0.832  0.000  0.500-  78 1.65  30 1.72  16 1.75  21 1.75  57 1.81  68 1.81
  55  0.832  0.500  0.000-  79 1.65  31 1.72  13 1.75  24 1.75  60 1.81  65 1.81
  56  0.832  0.500  0.500-  80 1.65  32 1.72  14 1.75  23 1.75  59 1.81  66 1.81
  57  0.000  0.000  0.332-  81 1.65  33 1.72   3 1.75  21 1.75  68 1.81  54 1.81
  58  0.000  0.000  0.832-  82 1.65  34 1.72   4 1.75  22 1.75  67 1.81  53 1.81
  59  0.000  0.500  0.332-  83 1.65  35 1.72   1 1.75  23 1.75  66 1.81  56 1.81
  60  0.000  0.500  0.832-  84 1.65  36 1.72   2 1.75  24 1.75  65 1.81  55 1.81
[...]
  98  0.315  0.315  0.815-  10 1.50  18 1.50   2 1.50
  99  0.315  0.815  0.315-  11 1.50  19 1.50   3 1.50
 100  0.315  0.815  0.815-  12 1.50  20 1.50   4 1.50
 101  0.815  0.315  0.315-  13 1.50  21 1.50   5 1.50
 102  0.815  0.315  0.815-  14 1.50  22 1.50   6 1.50
 103  0.815  0.815  0.315-  15 1.50  23 1.50   7 1.50
 104  0.815  0.815  0.815-  16 1.50  24 1.50   8 1.50
 105  0.185  0.185  0.185-  33 1.50  41 1.50  25 1.50
 106  0.185  0.185  0.685-  34 1.50  42 1.50  26 1.50
 107  0.185  0.685  0.185-  35 1.50  43 1.50  27 1.50
 108  0.185  0.685  0.685-  36 1.50  44 1.50  28 1.50
 109  0.685  0.185  0.185-  37 1.50  45 1.50  29 1.50
 110  0.685  0.185  0.685-  38 1.50  46 1.50  30 1.50
 111  0.685  0.685  0.185-  39 1.50  47 1.50  31 1.50
 112  0.685  0.685  0.685-  40 1.50  48 1.50  32 1.50

  LATTYP: Found a trigonal (rhomboedric) cell.
 ALAT       =    10.0419834782
 COS(alpha) =     0.4242225638

  Lattice vectors:

 A1 = (   9.1332820000,   0.0703250000,   4.1736850000)
 A2 = (   2.7094490000,   8.7224240000,   4.1736850000)
 A3 = (   0.0947180000,   0.0703250000,  10.0412900000)

Analysis of symmetry for initial positions (statically):
 Subroutine PRICEL returns following result:

[...]

   8 primitive cells build up your supercell.

 Routine SETGRP: Setting up the symmetry group for a
 trigonal (rhombohedral) supercell.

 Subroutine GETGRP returns: Found 12 space group operations
 (whereof 12 operations were pure point group operations)
 out of a pool of 12 trial point group operations.

The static configuration has the point symmetry D_3d.

Analysis of symmetry for dynamics (positions and initial velocities):
 Subroutine PRICEL returns following result:

  LATTYP: Found a trigonal (rhomboedric) cell.
 ALAT       =     5.0209917391
 COS(alpha) =     0.4242225638

  Lattice vectors:

 A1 = (   4.5666410000,   0.0351625000,   2.0868425000)
 A2 = (   1.3547245000,   4.3612120000,   2.0868425000)
 A3 = (   0.0473590000,   0.0351625000,   5.0206450000)

   8 primitive cells build up your supercell.

 Routine SETGRP: Setting up the symmetry group for a
 trigonal (rhombohedral) supercell.

 Subroutine GETGRP returns: Found 12 space group operations
 (whereof 12 operations were pure point group operations)
 out of a pool of 12 trial point group operations.

The dynamic configuration has the point symmetry D_3d.

 Subroutine INISYM returns: Found 12 space group operations
 (whereof 12 operations are pure point group operations),
 and found     8 'primitive' translations

                                     Primitive cell

  volume of cell :      99.0892

  direct lattice vectors                    reciprocal lattice vectors
     4.566641000  0.035162500  2.086842500     0.220233021 -0.067643684 -0.001603677
     1.354724500  4.361212000  2.086842500    -0.001041080  0.230384820 -0.001603699
     0.047359000  0.035162500  5.020645000    -0.091107628 -0.067643723  0.200510749

  length of vectors
     5.020991739  5.020991954  5.020991485     0.230392759  0.230392754  0.230392781

  position of ions in fractional coordinates (direct lattice)
     0.320790000  0.801030000  0.801030000
     0.801030000  0.801030000  0.320790000
     0.801030000  0.320790000  0.801030000
     0.679210000  0.198970000  0.198970000
     0.198970000  0.198970000  0.679210000
     0.198970000  0.679210000  0.198970000
     0.664586000  0.000230000  0.000230000
     0.000230000  0.000230000  0.664586000
     0.000230000  0.664586000  0.000230000
     0.335414000  0.999770000  0.999770000
     0.999770000  0.999770000  0.335414000
     0.999770000  0.335414000  0.999770000
     0.630794000  0.630794000  0.630794000
     0.369206000  0.369206000  0.369206000

  ion indices of the primitive-cell ions
   primitive index   ion index
                 1           1
                 2           9
                 3          17
                 4          28
                 5          35
                 6          42
                 7          52
                 8          59
                 9          66
                10          76
                11          83
[...]
   -.103E+02 0.164E+02 0.196E+02   0.124E+02 -.179E+02 -.210E+02   -.205E+01 0.151E+01 0.131E+01   0.111E-04 -.216E-04 -.269E-04
   -.103E+02 0.164E+02 0.196E+02   0.124E+02 -.179E+02 -.210E+02   -.205E+01 0.151E+01 0.131E+01   0.111E-04 -.216E-04 -.269E-04
   0.221E+02 0.164E+02 -.143E+01   -.242E+02 -.179E+02 0.276E+01   0.203E+01 0.151E+01 -.133E+01   -.291E-04 -.216E-04 -.802E-06
   0.221E+02 0.164E+02 -.143E+01   -.242E+02 -.179E+02 0.276E+01   0.203E+01 0.151E+01 -.133E+01   -.291E-04 -.216E-04 -.802E-06
   0.221E+02 0.164E+02 -.143E+01   -.242E+02 -.179E+02 0.276E+01   0.203E+01 0.151E+01 -.133E+01   -.291E-04 -.216E-04 -.802E-06
   0.221E+02 0.164E+02 -.143E+01   -.242E+02 -.179E+02 0.276E+01   0.203E+01 0.151E+01 -.133E+01   -.291E-04 -.216E-04 -.802E-06
   0.221E+02 0.164E+02 -.143E+01   -.242E+02 -.179E+02 0.276E+01   0.203E+01 0.151E+01 -.133E+01   -.291E-04 -.216E-04 -.802E-06
   0.221E+02 0.164E+02 -.143E+01   -.242E+02 -.179E+02 0.276E+01   0.203E+01 0.151E+01 -.133E+01   -.291E-04 -.216E-04 -.802E-06
   0.221E+02 0.164E+02 -.143E+01   -.242E+02 -.179E+02 0.276E+01   0.203E+01 0.151E+01 -.133E+01   -.291E-04 -.216E-04 -.802E-06
   0.221E+02 0.164E+02 -.143E+01   -.242E+02 -.179E+02 0.276E+01   0.203E+01 0.151E+01 -.133E+01   -.291E-04 -.216E-04 -.802E-06
   0.128E+02 -.146E+02 0.196E+02   -.136E+02 0.170E+02 -.210E+02   0.852E+00 -.240E+01 0.131E+01   -.175E-04 0.169E-04 -.269E-04
   0.128E+02 -.146E+02 0.196E+02   -.136E+02 0.170E+02 -.210E+02   0.852E+00 -.240E+01 0.131E+01   -.175E-04 0.169E-04 -.269E-04
   0.128E+02 -.146E+02 0.196E+02   -.136E+02 0.170E+02 -.210E+02   0.852E+00 -.240E+01 0.131E+01   -.175E-04 0.169E-04 -.269E-04
   0.128E+02 -.146E+02 0.196E+02   -.136E+02 0.170E+02 -.210E+02   0.852E+00 -.240E+01 0.131E+01   -.175E-04 0.169E-04 -.269E-04
   0.128E+02 -.146E+02 0.196E+02   -.136E+02 0.170E+02 -.210E+02   0.852E+00 -.240E+01 0.131E+01   -.175E-04 0.169E-04 -.269E-04
   0.128E+02 -.146E+02 0.196E+02   -.136E+02 0.170E+02 -.210E+02   0.852E+00 -.240E+01 0.131E+01   -.175E-04 0.169E-04 -.269E-04
   0.128E+02 -.146E+02 0.196E+02   -.136E+02 0.170E+02 -.210E+02   0.852E+00 -.240E+01 0.131E+01   -.175E-04 0.169E-04 -.269E-04
   0.128E+02 -.146E+02 0.196E+02   -.136E+02 0.170E+02 -.210E+02   0.852E+00 -.240E+01 0.131E+01   -.175E-04 0.169E-04 -.269E-04
   0.103E+02 -.164E+02 -.196E+02   -.124E+02 0.179E+02 0.210E+02   0.205E+01 -.151E+01 -.131E+01   -.111E-04 0.216E-04 0.269E-04
   0.103E+02 -.164E+02 -.196E+02   -.124E+02 0.179E+02 0.210E+02   0.205E+01 -.151E+01 -.131E+01   -.111E-04 0.216E-04 0.269E-04
   0.103E+02 -.164E+02 -.196E+02   -.124E+02 0.179E+02 0.210E+02   0.205E+01 -.151E+01 -.131E+01   -.111E-04 0.216E-04 0.269E-04
   0.103E+02 -.164E+02 -.196E+02   -.124E+02 0.179E+02 0.210E+02   0.205E+01 -.151E+01 -.131E+01   -.111E-04 0.216E-04 0.269E-04
   0.103E+02 -.164E+02 -.196E+02   -.124E+02 0.179E+02 0.210E+02   0.205E+01 -.151E+01 -.131E+01   -.111E-04 0.216E-04 0.269E-04
   0.103E+02 -.164E+02 -.196E+02   -.124E+02 0.179E+02 0.210E+02   0.205E+01 -.151E+01 -.131E+01   -.111E-04 0.216E-04 0.269E-04
   0.103E+02 -.164E+02 -.196E+02   -.124E+02 0.179E+02 0.210E+02   0.205E+01 -.151E+01 -.131E+01   -.111E-04 0.216E-04 0.269E-04
   0.103E+02 -.164E+02 -.196E+02   -.124E+02 0.179E+02 0.210E+02   0.205E+01 -.151E+01 -.131E+01   -.111E-04 0.216E-04 0.269E-04
   -.221E+02 -.164E+02 0.143E+01   0.242E+02 0.179E+02 -.276E+01   -.203E+01 -.151E+01 0.133E+01   0.291E-04 0.216E-04 0.802E-06
   -.221E+02 -.164E+02 0.143E+01   0.242E+02 0.179E+02 -.276E+01   -.203E+01 -.151E+01 0.133E+01   0.291E-04 0.216E-04 0.802E-06
   -.221E+02 -.164E+02 0.143E+01   0.242E+02 0.179E+02 -.276E+01   -.203E+01 -.151E+01 0.133E+01   0.291E-04 0.216E-04 0.802E-06
   -.221E+02 -.164E+02 0.143E+01   0.242E+02 0.179E+02 -.276E+01   -.203E+01 -.151E+01 0.133E+01   0.291E-04 0.216E-04 0.802E-06
   -.221E+02 -.164E+02 0.143E+01   0.242E+02 0.179E+02 -.276E+01   -.203E+01 -.151E+01 0.133E+01   0.291E-04 0.216E-04 0.802E-06
   -.221E+02 -.164E+02 0.143E+01   0.242E+02 0.179E+02 -.276E+01   -.203E+01 -.151E+01 0.133E+01   0.291E-04 0.216E-04 0.802E-06
   -.221E+02 -.164E+02 0.143E+01   0.242E+02 0.179E+02 -.276E+01   -.203E+01 -.151E+01 0.133E+01   0.291E-04 0.216E-04 0.802E-06
   -.221E+02 -.164E+02 0.143E+01   0.242E+02 0.179E+02 -.276E+01   -.203E+01 -.151E+01 0.133E+01   0.291E-04 0.216E-04 0.802E-06
   -.128E+02 0.146E+02 -.196E+02   0.136E+02 -.170E+02 0.210E+02   -.852E+00 0.240E+01 -.131E+01   0.175E-04 -.169E-04 0.269E-04
   -.128E+02 0.146E+02 -.196E+02   0.136E+02 -.170E+02 0.210E+02   -.852E+00 0.240E+01 -.131E+01   0.175E-04 -.169E-04 0.269E-04
   -.128E+02 0.146E+02 -.196E+02   0.136E+02 -.170E+02 0.210E+02   -.852E+00 0.240E+01 -.131E+01   0.175E-04 -.169E-04 0.269E-04
   -.128E+02 0.146E+02 -.196E+02   0.136E+02 -.170E+02 0.210E+02   -.852E+00 0.240E+01 -.131E+01   0.175E-04 -.169E-04 0.269E-04
   -.128E+02 0.146E+02 -.196E+02   0.136E+02 -.170E+02 0.210E+02   -.852E+00 0.240E+01 -.131E+01   0.175E-04 -.169E-04 0.269E-04
   -.128E+02 0.146E+02 -.196E+02   0.136E+02 -.170E+02 0.210E+02   -.852E+00 0.240E+01 -.131E+01   0.175E-04 -.169E-04 0.269E-04
   -.128E+02 0.146E+02 -.196E+02   0.136E+02 -.170E+02 0.210E+02   -.852E+00 0.240E+01 -.131E+01   0.175E-04 -.169E-04 0.269E-04
   -.128E+02 0.146E+02 -.196E+02   0.136E+02 -.170E+02 0.210E+02   -.852E+00 0.240E+01 -.131E+01   0.175E-04 -.169E-04 0.269E-04
   0.380E+02 0.646E+01 0.264E+02   -.428E+02 -.650E+01 -.287E+02   0.481E+01 0.466E-01 0.221E+01   -.430E-04 -.943E-05 -.331E-04
   0.380E+02 0.646E+01 0.264E+02   -.428E+02 -.650E+01 -.287E+02   0.481E+01 0.466E-01 0.221E+01   -.430E-04 -.943E-05 -.331E-04
   0.380E+02 0.646E+01 0.264E+02   -.428E+02 -.650E+01 -.287E+02   0.481E+01 0.466E-01 0.221E+01   -.430E-04 -.943E-05 -.331E-04
   0.380E+02 0.646E+01 0.264E+02   -.428E+02 -.650E+01 -.287E+02   0.481E+01 0.466E-01 0.221E+01   -.430E-04 -.943E-05 -.331E-04
   0.380E+02 0.646E+01 0.264E+02   -.428E+02 -.650E+01 -.287E+02   0.481E+01 0.466E-01 0.221E+01   -.430E-04 -.943E-05 -.331E-04
   0.380E+02 0.646E+01 0.264E+02   -.428E+02 -.650E+01 -.287E+02   0.481E+01 0.466E-01 0.221E+01   -.430E-04 -.943E-05 -.331E-04
   0.380E+02 0.646E+01 0.264E+02   -.428E+02 -.650E+01 -.287E+02   0.481E+01 0.466E-01 0.221E+01   -.430E-04 -.943E-05 -.331E-04
   0.380E+02 0.646E+01 0.264E+02   -.428E+02 -.650E+01 -.287E+02   0.481E+01 0.466E-01 0.221E+01   -.430E-04 -.943E-05 -.331E-04
   0.869E+01 0.646E+01 0.455E+02   -.876E+01 -.650E+01 -.508E+02   0.628E-01 0.466E-01 0.529E+01   -.127E-04 -.943E-05 -.527E-04
   0.869E+01 0.646E+01 0.455E+02   -.876E+01 -.650E+01 -.508E+02   0.628E-01 0.466E-01 0.529E+01   -.127E-04 -.943E-05 -.527E-04
   0.869E+01 0.646E+01 0.455E+02   -.876E+01 -.650E+01 -.508E+02   0.628E-01 0.466E-01 0.529E+01   -.127E-04 -.943E-05 -.527E-04
   0.869E+01 0.646E+01 0.455E+02   -.876E+01 -.650E+01 -.508E+02   0.628E-01 0.466E-01 0.529E+01   -.127E-04 -.943E-05 -.527E-04
[...]
   0.165E+02 0.122E+02 0.254E+02   -.167E+02 -.124E+02 -.257E+02   0.229E+00 0.170E+00 0.353E+00   -.155E-04 -.115E-04 -.239E-04
   0.165E+02 0.122E+02 0.254E+02   -.167E+02 -.124E+02 -.257E+02   0.229E+00 0.170E+00 0.353E+00   -.155E-04 -.115E-04 -.239E-04
   0.165E+02 0.122E+02 0.254E+02   -.167E+02 -.124E+02 -.257E+02   0.229E+00 0.170E+00 0.353E+00   -.155E-04 -.115E-04 -.239E-04
   0.165E+02 0.122E+02 0.254E+02   -.167E+02 -.124E+02 -.257E+02   0.229E+00 0.170E+00 0.353E+00   -.155E-04 -.115E-04 -.239E-04
   0.165E+02 0.122E+02 0.254E+02   -.167E+02 -.124E+02 -.257E+02   0.229E+00 0.170E+00 0.353E+00   -.155E-04 -.115E-04 -.239E-04
   0.165E+02 0.122E+02 0.254E+02   -.167E+02 -.124E+02 -.257E+02   0.229E+00 0.170E+00 0.353E+00   -.155E-04 -.115E-04 -.239E-04
   -.165E+02 -.122E+02 -.254E+02   0.167E+02 0.124E+02 0.257E+02   -.229E+00 -.170E+00 -.353E+00   0.155E-04 0.115E-04 0.239E-04
   -.165E+02 -.122E+02 -.254E+02   0.167E+02 0.124E+02 0.257E+02   -.229E+00 -.170E+00 -.353E+00   0.155E-04 0.115E-04 0.239E-04
   -.165E+02 -.122E+02 -.254E+02   0.167E+02 0.124E+02 0.257E+02   -.229E+00 -.170E+00 -.353E+00   0.155E-04 0.115E-04 0.239E-04
   -.165E+02 -.122E+02 -.254E+02   0.167E+02 0.124E+02 0.257E+02   -.229E+00 -.170E+00 -.353E+00   0.155E-04 0.115E-04 0.239E-04
   -.165E+02 -.122E+02 -.254E+02   0.167E+02 0.124E+02 0.257E+02   -.229E+00 -.170E+00 -.353E+00   0.155E-04 0.115E-04 0.239E-04
   -.165E+02 -.122E+02 -.254E+02   0.167E+02 0.124E+02 0.257E+02   -.229E+00 -.170E+00 -.353E+00   0.155E-04 0.115E-04 0.239E-04
   -.165E+02 -.122E+02 -.254E+02   0.167E+02 0.124E+02 0.257E+02   -.229E+00 -.170E+00 -.353E+00   0.155E-04 0.115E-04 0.239E-04
   -.165E+02 -.122E+02 -.254E+02   0.167E+02 0.124E+02 0.257E+02   -.229E+00 -.170E+00 -.353E+00   0.155E-04 0.115E-04 0.239E-04
   -.983E-11 -.660E-11 0.603E-10   0.135E-12 -.210E-12 -.842E-12   0.470E-13 -.180E-13 0.687E-13   0.270E-11 0.238E-11 0.277E-12

 POSITION                                       TOTAL-FORCE (eV/Angst)
      2.53523      3.49974      6.29030         0.000070      0.000007      0.000042
      2.55278      3.51277     11.29006         0.000070      0.000007      0.000042
      3.86676      7.86071      8.34142         0.000070      0.000007      0.000042
      3.88431      7.87374     13.34118         0.000070      0.000007      0.000042
      7.09493      3.51277      8.34142         0.000070      0.000007      0.000042
      7.11248      3.52580     13.34118         0.000070      0.000007      0.000042
      8.42646      7.87374     10.39253         0.000070      0.000007      0.000042
      8.44401      7.88677     15.39229         0.000070      0.000007      0.000042
      4.71371      3.49974      4.87609         0.000010      0.000007      0.000081
      4.73126      3.51277      9.87585         0.000010      0.000007      0.000081
      6.04524      7.86071      6.92720         0.000010      0.000007      0.000081
      6.06279      7.87374     11.92696         0.000010      0.000007      0.000081
      9.27341      3.51277      6.92720         0.000010      0.000007      0.000081
      9.29095      3.52580     11.92696         0.000010      0.000007      0.000081
     10.60494      7.87374      8.97832         0.000010      0.000007      0.000081
     10.62248      7.88677     13.97808         0.000010      0.000007      0.000081
      4.08350      1.41441      6.29030         0.000027      0.000065      0.000042
      4.10105      1.42744     11.29006         0.000027      0.000065      0.000042
      5.41503      5.77538      8.34142         0.000027      0.000065      0.000042
      5.43258      5.78841     13.34118         0.000027      0.000065      0.000042
      8.64320      1.42744      8.34142         0.000027      0.000065      0.000042
      8.66075      1.44047     13.34118         0.000027      0.000065      0.000042
      9.97473      5.78840     10.39253         0.000027      0.000065      0.000042
      9.99228      5.80143     15.39229         0.000027      0.000065      0.000042
      3.37355      0.88729      2.81168        -0.000070     -0.000007     -0.000042
      3.39109      0.90032      7.81144        -0.000070     -0.000007     -0.000042
      4.70507      5.24826      4.86279        -0.000070     -0.000007     -0.000042
      4.72262      5.26129      9.86255        -0.000070     -0.000007     -0.000042
      7.93324      0.90032      4.86279        -0.000070     -0.000007     -0.000042
      7.95079      0.91335      9.86255        -0.000070     -0.000007     -0.000042
      9.26477      5.26129      6.91391        -0.000070     -0.000007     -0.000042
      9.28232      5.27432     11.91366        -0.000070     -0.000007     -0.000042
      1.19507      0.88729      4.22589        -0.000010     -0.000007     -0.000081
      1.21262      0.90032      9.22565        -0.000010     -0.000007     -0.000081
      2.52660      5.24826      6.27700        -0.000010     -0.000007     -0.000081
      2.54415      5.26129     11.27676        -0.000010     -0.000007     -0.000081
      5.75477      0.90032      6.27700        -0.000010     -0.000007     -0.000081
      5.77231      0.91335     11.27676        -0.000010     -0.000007     -0.000081
      7.08630      5.26129      8.32812        -0.000010     -0.000007     -0.000081
      7.10384      5.27432     13.32788        -0.000010     -0.000007     -0.000081
      1.82527      2.97262      2.81168        -0.000027     -0.000065     -0.000042
      1.84282      2.98565      7.81144        -0.000027     -0.000065     -0.000042
      3.15680      7.33359      4.86279        -0.000027     -0.000065     -0.000042
      3.17435      7.34662      9.86255        -0.000027     -0.000065     -0.000042
      6.38497      2.98565      4.86279        -0.000027     -0.000065     -0.000042
      6.40252      2.99868      9.86255        -0.000027     -0.000065     -0.000042
      7.71650      7.34662      6.91391        -0.000027     -0.000065     -0.000042
      7.73405      7.35965     11.91366        -0.000027     -0.000065     -0.000042
      3.03277      0.00350      1.35663        -0.000052      0.000011     -0.000007
      3.05031      0.01653      6.35639        -0.000052      0.000011     -0.000007
      4.36429      4.36447      3.40775        -0.000052      0.000011     -0.000007
      4.38184      4.37750      8.40750        -0.000052      0.000011     -0.000007
      7.59246      0.01653      3.40775        -0.000052      0.000011     -0.000007
      7.61001      0.02956      8.40750        -0.000052      0.000011     -0.000007
      8.92399      4.37750      5.45886        -0.000052      0.000011     -0.000007
      8.94154      4.39053     10.45862        -0.000052      0.000011     -0.000007
      0.00472      0.00350      3.32236         0.000015      0.000011     -0.000050
      0.02227      0.01653      8.32212         0.000015      0.000011     -0.000050
      1.33625      4.36447      5.37348         0.000015      0.000011     -0.000050
      1.35380      4.37750     10.37323         0.000015      0.000011     -0.000050
[...]
      3.71899      2.76120     10.70152         0.000266      0.000198      0.000410
      5.03297      7.10914      7.75288         0.000266      0.000198      0.000410
      5.05052      7.12217     12.75264         0.000266      0.000198      0.000410
      8.26114      2.76120      7.75288         0.000266      0.000198      0.000410
      8.27869      2.77423     12.75264         0.000266      0.000198      0.000410
      9.59267      7.12217      9.80399         0.000266      0.000198      0.000410
      9.61022      7.13520     14.80375         0.000266      0.000198      0.000410
      2.20734      1.63886      3.40022        -0.000266     -0.000198     -0.000410
      2.22488      1.65189      8.39998        -0.000266     -0.000198     -0.000410
      3.53887      5.99983      5.45133        -0.000266     -0.000198     -0.000410
      3.55641      6.01286     10.45109        -0.000266     -0.000198     -0.000410
      6.76703      1.65189      5.45133        -0.000266     -0.000198     -0.000410
      6.78458      1.66492     10.45109        -0.000266     -0.000198     -0.000410
      8.09856      6.01286      7.50244        -0.000266     -0.000198     -0.000410
      8.11611      6.02589     12.50220        -0.000266     -0.000198     -0.000410
    total drift:                               -0.000000     -0.000000      0.000000

  FREE ENERGIE OF THE ION-ELECTRON SYSTEM (eV)
  free  energy   TOTEN  =      -788.62967929 eV

  energy  without entropy=     -788.62967929  energy(sigma->0) =     -788.62967929

 d Force = 0.2403713E-05[-0.517E-07, 0.486E-05]  d Energy = 0.2966718E-04-0.273E-04
 d Force = 0.1076945E+00[ 0.108E+00, 0.108E+00]  d Ewald  = 0.1023648E+00 0.533E-02

 reached required accuracy - stopping structural energy minimisation
|           W    W    AA    RRRRR   N    N  II  N    N   GGGG   !!!           |
|           W    W   A  A   R    R  NN   N  II  NN   N  G    G  !!!           |
|           W    W  A    A  R    R  N N  N  II  N N  N  G       !!!           |
|           W WW W  AAAAAA  RRRRR   N  N N  II  N  N N  G  GGG   !            |
|           WW  WW  A    A  R   R   N   NN  II  N   NN  G    G                |
|           W    W  A    A  R    R  N    N  II  N    N   GGGG   !!!           |
|     Tetrahedron method does not include variations of the Fermi             |
|     occupations, so forces and stress will be inaccurate. We suggest        |
|     using a different smearing scheme ISMEAR = 1 or 2 for metals in         |
|     relaxations.                                                            |

 BZINTS: Fermi energy:    4.931392;  352.000000 electrons
         Band energy:-0.335690E+03;  BLOECHL correction:   -0.292409