 vasp.6.2.0 18Jan21 (build Feb 25 2021 07:51:20) complex
 executed on             LinuxPGI date 2022.05.18  06:43:48

 INCAR:
   ALGO = Fast
   PREC = Accurate
   EDIFF = 1E-6
   ENCUT = 700
   ISMEAR = -5
   IBRION = 2
   ISIF = 4
   LREAL = Auto
   LWAVE = False
   LCHARGE = False
   NSW = 300
   SIGMA = 0.05

 POTCAR:    PAW_PBE B 06Sep2000
 POTCAR:    PAW_PBE C 08Apr2002
 POTCAR:    PAW_PBE B 06Sep2000
   VRHFIN =B: s2p1

   TITEL  = PAW_PBE B 06Sep2000
   POMASS =   10.811; ZVAL   =    3.000    mass and valenz
   ENMAX  =  318.614; ENMIN  =  238.960 eV

 POTCAR:    PAW_PBE C 08Apr2002
   VRHFIN =C: s2p2

   TITEL  = PAW_PBE C 08Apr2002
   POMASS =   12.011; ZVAL   =    4.000    mass and valenz
   ENMAX  =  400.000; ENMIN  =  300.000 eV

 Optimization of the real space projectors (new method)

 maximal supplied QI-value         = 22.11
 optimisation between [QCUT,QGAM] = [ 13.49, 26.97] = [ 50.94,203.75] Ry
 Optimized for a Real-space Cutoff    1.14 Angstroem

   l    n(q)    QCUT    max X(q) W(low)/X(q) W(high)/X(q)  e(spline)
   0      9    13.487    53.033    0.17E-03    0.11E-03    0.20E-06
   0      9    13.487    34.740    0.17E-03    0.11E-03    0.20E-06
   1      9    13.487    30.949    0.61E-04    0.25E-04    0.11E-06
   1      9    13.487    19.518    0.55E-04    0.23E-04    0.10E-06
 Optimization of the real space projectors (new method)

 maximal supplied QI-value         = 25.13
 optimisation between [QCUT,QGAM] = [ 13.32, 26.89] = [ 49.69,202.52] Ry
 Optimized for a Real-space Cutoff    1.07 Angstroem

   l    n(q)    QCUT    max X(q) W(low)/X(q) W(high)/X(q)  e(spline)
   0      9    13.321   115.676    0.24E-03    0.18E-03    0.16E-06
   0      9    13.321    87.132    0.24E-03    0.18E-03    0.16E-06
   1      8    13.321     4.429    0.20E-03    0.27E-03    0.12E-06
   1      8    13.321     2.733    0.16E-03    0.21E-03    0.12E-06
  PAW_PBE B 06Sep2000                   :
  PAW_PBE C 08Apr2002                   :

 POSCAR: B96 C16
  positions in direct lattice
 exchange correlation table for  LEXCH =        8
   RHO(1)=    0.500       N(1)  =     2000
   RHO(2)=  100.500       N(2)  =     4000

 ion  position               nearest neighbor table
   1  0.160  0.401  0.401-  97 1.56  76 1.78  35 1.78  42 1.79  59 1.81  66 1.82
   2  0.160  0.401  0.901-  98 1.56  75 1.78  36 1.78  41 1.79  60 1.81  65 1.82
   3  0.160  0.901  0.401-  99 1.56  74 1.78  33 1.78  44 1.79  57 1.81  68 1.82
   4  0.160  0.901  0.901- 100 1.56  73 1.78  34 1.78  43 1.79  58 1.81  67 1.82
   5  0.660  0.401  0.401- 101 1.56  80 1.78  39 1.78  46 1.79  63 1.81  70 1.82
   6  0.660  0.401  0.901- 102 1.56  79 1.78  40 1.78  45 1.79  64 1.81  69 1.82
   7  0.660  0.901  0.401- 103 1.56  78 1.78  37 1.78  48 1.79  61 1.81  72 1.82
   8  0.660  0.901  0.901- 104 1.56  77 1.78  38 1.78  47 1.79  62 1.81  71 1.82
   9  0.401  0.401  0.160-  97 1.55  27 1.78  87 1.79  45 1.80  51 1.80  69 1.80
  10  0.401  0.401  0.660-  98 1.55  28 1.78  88 1.79  46 1.80  52 1.80  70 1.80
  11  0.401  0.901  0.160-  99 1.55  25 1.78  85 1.79  47 1.80  49 1.80  71 1.80
  12  0.401  0.901  0.660- 100 1.55  26 1.78  86 1.79  48 1.80  50 1.80  72 1.80
  13  0.901  0.401  0.160- 101 1.55  31 1.78  83 1.79  41 1.80  55 1.80  65 1.80
  14  0.901  0.401  0.660- 102 1.55  32 1.78  84 1.79  42 1.80  56 1.80  66 1.80
  15  0.901  0.901  0.160- 103 1.55  29 1.78  81 1.79  43 1.80  53 1.80  67 1.80
  16  0.901  0.901  0.660- 104 1.55  30 1.78  82 1.79  44 1.80  54 1.80  68 1.80
  17  0.401  0.160  0.401-  97 1.55  94 1.78  26 1.79  37 1.80  61 1.80  50 1.81
  18  0.401  0.160  0.901-  98 1.55  93 1.78  25 1.79  38 1.80  62 1.80  49 1.81
  19  0.401  0.660  0.401-  99 1.55  96 1.78  28 1.79  39 1.80  63 1.80  52 1.81
  20  0.401  0.660  0.901- 100 1.55  95 1.78  27 1.79  40 1.80  64 1.80  51 1.81
  21  0.901  0.160  0.401- 101 1.55  90 1.78  30 1.79  33 1.80  57 1.80  54 1.81
  22  0.901  0.160  0.901- 102 1.55  89 1.78  29 1.79  34 1.80  58 1.80  53 1.81
  23  0.901  0.660  0.401- 103 1.55  92 1.78  32 1.79  35 1.80  59 1.80  56 1.81
  24  0.901  0.660  0.901- 104 1.55  91 1.78  31 1.79  36 1.80  60 1.80  55 1.81
  25  0.340  0.099  0.099- 105 1.56  49 1.78  11 1.78  18 1.79  85 1.81  93 1.82
  26  0.340  0.099  0.599- 106 1.56  50 1.78  12 1.78  17 1.79  86 1.81  94 1.82
  27  0.340  0.599  0.099- 107 1.56  51 1.78   9 1.78  20 1.79  87 1.81  95 1.82
  28  0.340  0.599  0.599- 108 1.56  52 1.78  10 1.78  19 1.79  88 1.81  96 1.82
  29  0.840  0.099  0.099- 109 1.56  53 1.78  15 1.78  22 1.79  81 1.81  89 1.82
  30  0.840  0.099  0.599- 110 1.56  54 1.78  16 1.78  21 1.79  82 1.81  90 1.82
  31  0.840  0.599  0.099- 111 1.56  55 1.78  13 1.78  24 1.79  83 1.81  91 1.82
  32  0.840  0.599  0.599- 112 1.56  56 1.78  14 1.78  23 1.79  84 1.81  92 1.82
  33  0.099  0.099  0.340- 105 1.55   3 1.78  57 1.79  21 1.80  74 1.80  90 1.80
  34  0.099  0.099  0.840- 106 1.55   4 1.78  58 1.79  22 1.80  73 1.80  89 1.80
  35  0.099  0.599  0.340- 107 1.55   1 1.78  59 1.79  23 1.80  76 1.80  92 1.80
  36  0.099  0.599  0.840- 108 1.55   2 1.78  60 1.79  24 1.80  75 1.80  91 1.80
  37  0.599  0.099  0.340- 109 1.55   7 1.78  61 1.79  17 1.80  78 1.80  94 1.80
  38  0.599  0.099  0.840- 110 1.55   8 1.78  62 1.79  18 1.80  77 1.80  93 1.80
  39  0.599  0.599  0.340- 111 1.55   5 1.78  63 1.79  19 1.80  80 1.80  96 1.80
  40  0.599  0.599  0.840- 112 1.55   6 1.78  64 1.79  20 1.80  79 1.80  95 1.80
  41  0.099  0.340  0.099- 105 1.55  65 1.78   2 1.79  13 1.80  83 1.80  75 1.81
  42  0.099  0.340  0.599- 106 1.55  66 1.78   1 1.79  14 1.80  84 1.80  76 1.81
  43  0.099  0.840  0.099- 107 1.55  67 1.78   4 1.79  15 1.80  81 1.80  73 1.81
  44  0.099  0.840  0.599- 108 1.55  68 1.78   3 1.79  16 1.80  82 1.80  74 1.81
  45  0.599  0.340  0.099- 109 1.55  69 1.78   6 1.79   9 1.80  87 1.80  79 1.81
  46  0.599  0.340  0.599- 110 1.55  70 1.78   5 1.79  10 1.80  88 1.80  80 1.81
  47  0.599  0.840  0.099- 111 1.55  71 1.78   8 1.79  11 1.80  85 1.80  77 1.81
  48  0.599  0.840  0.599- 112 1.55  72 1.78   7 1.79  12 1.80  86 1.80  78 1.81
  49  0.332  0.000  0.000-  73 1.72  25 1.78  11 1.80  18 1.81  71 1.87  62 1.88
  50  0.332  0.000  0.500-  74 1.72  26 1.78  12 1.80  17 1.81  72 1.87  61 1.88
  51  0.332  0.500  0.000-  75 1.72  27 1.78   9 1.80  20 1.81  69 1.87  64 1.88
  52  0.332  0.500  0.500-  76 1.72  28 1.78  10 1.80  19 1.81  70 1.87  63 1.88
  53  0.832  0.000  0.000-  77 1.72  29 1.78  15 1.80  22 1.81  67 1.87  58 1.88
  54  0.832  0.000  0.500-  78 1.72  30 1.78  16 1.80  21 1.81  68 1.87  57 1.88
  55  0.832  0.500  0.000-  79 1.72  31 1.78  13 1.80  24 1.81  65 1.87  60 1.88
  56  0.832  0.500  0.500-  80 1.72  32 1.78  14 1.80  23 1.81  66 1.87  59 1.88
  57  0.000  0.000  0.332-  81 1.71  33 1.79  21 1.80   3 1.81  68 1.87  54 1.88
  58  0.000  0.000  0.832-  82 1.71  34 1.79  22 1.80   4 1.81  67 1.87  53 1.88
  59  0.000  0.500  0.332-  83 1.71  35 1.79  23 1.80   1 1.81  66 1.87  56 1.88
  60  0.000  0.500  0.832-  84 1.71  36 1.79  24 1.80   2 1.81  65 1.87  55 1.88
[...]
  98  0.315  0.315  0.815-  18 1.55  10 1.55   2 1.56
  99  0.315  0.815  0.315-  19 1.55  11 1.55   3 1.56
 100  0.315  0.815  0.815-  20 1.55  12 1.55   4 1.56
 101  0.815  0.315  0.315-  21 1.55  13 1.55   5 1.56
 102  0.815  0.315  0.815-  22 1.55  14 1.55   6 1.56
 103  0.815  0.815  0.315-  23 1.55  15 1.55   7 1.56
 104  0.815  0.815  0.815-  24 1.55  16 1.55   8 1.56
 105  0.185  0.185  0.185-  41 1.55  33 1.55  25 1.56
 106  0.185  0.185  0.685-  42 1.55  34 1.55  26 1.56
 107  0.185  0.685  0.185-  43 1.55  35 1.55  27 1.56
 108  0.185  0.685  0.685-  44 1.55  36 1.55  28 1.56
 109  0.685  0.185  0.185-  45 1.55  37 1.55  29 1.56
 110  0.685  0.185  0.685-  46 1.55  38 1.55  30 1.56
 111  0.685  0.685  0.185-  47 1.55  39 1.55  31 1.56
 112  0.685  0.685  0.685-  48 1.55  40 1.55  32 1.56

  LATTYP: Found a triclinic cell.
 ALAT       =    10.4480549991
 B/A-ratio  =     1.0681127018
 C/A-ratio  =     0.9918300895
 COS(alpha) =     0.0001119293
 COS(beta)  =     0.4209261576
 COS(gamma) =     0.5410042343

  Lattice vectors:

 A1 = (  -9.5187470000,  -0.0725710000,  -4.3069760000)
 A2 = (  -6.6949470000,   8.9284150000,   0.0000010000)
 A3 = (  -0.0987160000,  -0.0725710000, -10.3619710000)

Analysis of symmetry for initial positions (statically):
 Subroutine PRICEL returns following result:

[...]

   8 primitive cells build up your supercell.

 Routine SETGRP: Setting up the symmetry group for a
 triclinic supercell.

 Subroutine GETGRP returns: Found  2 space group operations
 (whereof  2 operations were pure point group operations)
 out of a pool of  2 trial point group operations.

The static configuration has the point symmetry S_2 .

Analysis of symmetry for dynamics (positions and initial velocities):
 Subroutine PRICEL returns following result:

  LATTYP: Found a triclinic cell.
 ALAT       =     5.2240274996
 B/A-ratio  =     1.0681127018
 C/A-ratio  =     0.9918300895
 COS(alpha) =     0.0001119293
 COS(beta)  =     0.4209261576
 COS(gamma) =     0.5410042343

  Lattice vectors:

 A1 = (  -4.7593735000,  -0.0362855000,  -2.1534880000)
 A2 = (  -3.3474735000,   4.4642075000,   0.0000005000)
 A3 = (  -0.0493580000,  -0.0362855000,  -5.1809855000)

   8 primitive cells build up your supercell.

 Routine SETGRP: Setting up the symmetry group for a
 triclinic supercell.

 Subroutine GETGRP returns: Found  2 space group operations
 (whereof  2 operations were pure point group operations)
 out of a pool of  2 trial point group operations.

The dynamic configuration has the point symmetry S_2 .

 Subroutine INISYM returns: Found  2 space group operations
 (whereof  2 operations are pure point group operations),
 and found     8 'primitive' translations

                                     Primitive cell

  volume of cell :     109.9727

  direct lattice vectors                    reciprocal lattice vectors
    -4.759373500 -0.036285500 -2.153488000    -0.210315690 -0.157704632  0.003108126
    -3.347473500  4.464207500  0.000000500    -0.000998923  0.223254885 -0.001554069
    -0.049358000 -0.036285500 -5.180985500     0.087418178  0.065550298 -0.194305371

  length of vectors
     5.224027500  5.579850127  5.181347663     0.262893706  0.223262529  0.222920068

  position of ions in fractional coordinates (direct lattice)
     0.878180000  0.801030000  0.198970000
     0.397940000  0.801030000  0.679210000
     0.878180000  0.320790000  0.198970000
     0.121820000  0.198970000  0.801030000
     0.602060000  0.198970000  0.320790000
     0.121820000  0.679210000  0.801030000
     0.335184000  0.000230000  0.999770000
     0.999540000  0.000230000  0.335414000
     0.335184000  0.664586000  0.999770000
     0.664816000  0.999770000  0.000230000
     0.000460000  0.999770000  0.664586000
     0.664816000  0.335414000  0.000230000
     0.738412000  0.630794000  0.369206000
     0.261588000  0.369206000  0.630794000

  ion indices of the primitive-cell ions
   primitive index   ion index
                 1           1
                 2           9
                 3          17
                 4          28
[...]
   -.778E+01 0.161E+02 0.203E+02   0.972E+01 -.175E+02 -.215E+02   -.194E+01 0.135E+01 0.113E+01   -.125E-04 0.364E-05 0.118E-04
   -.778E+01 0.161E+02 0.203E+02   0.972E+01 -.175E+02 -.215E+02   -.194E+01 0.135E+01 0.113E+01   -.125E-04 0.364E-05 0.118E-04
   0.217E+02 0.161E+02 0.106E+01   -.235E+02 -.175E+02 0.248E+00   0.182E+01 0.135E+01 -.130E+01   0.242E-04 -.130E-04 0.100E-05
   0.217E+02 0.161E+02 0.106E+01   -.235E+02 -.175E+02 0.248E+00   0.182E+01 0.135E+01 -.130E+01   0.242E-04 -.130E-04 0.100E-05
   0.217E+02 0.161E+02 0.106E+01   -.235E+02 -.175E+02 0.248E+00   0.182E+01 0.135E+01 -.130E+01   0.242E-04 -.130E-04 0.100E-05
   0.217E+02 0.161E+02 0.106E+01   -.235E+02 -.175E+02 0.248E+00   0.182E+01 0.135E+01 -.130E+01   0.242E-04 -.130E-04 0.100E-05
   0.217E+02 0.161E+02 0.106E+01   -.235E+02 -.175E+02 0.248E+00   0.182E+01 0.135E+01 -.130E+01   0.242E-04 -.130E-04 0.100E-05
   0.217E+02 0.161E+02 0.106E+01   -.235E+02 -.175E+02 0.248E+00   0.182E+01 0.135E+01 -.130E+01   0.242E-04 -.130E-04 0.100E-05
   0.217E+02 0.161E+02 0.106E+01   -.235E+02 -.175E+02 0.248E+00   0.182E+01 0.135E+01 -.130E+01   0.242E-04 -.130E-04 0.100E-05
   0.217E+02 0.161E+02 0.106E+01   -.235E+02 -.175E+02 0.248E+00   0.182E+01 0.135E+01 -.130E+01   0.242E-04 -.130E-04 0.100E-05
   0.131E+02 -.122E+02 0.203E+02   -.139E+02 0.144E+02 -.214E+02   0.738E+00 -.224E+01 0.113E+01   0.197E-04 -.206E-05 -.338E-05
   0.131E+02 -.122E+02 0.203E+02   -.139E+02 0.144E+02 -.214E+02   0.738E+00 -.224E+01 0.113E+01   0.197E-04 -.206E-05 -.338E-05
   0.131E+02 -.122E+02 0.203E+02   -.139E+02 0.144E+02 -.214E+02   0.738E+00 -.224E+01 0.113E+01   0.197E-04 -.206E-05 -.338E-05
   0.131E+02 -.122E+02 0.203E+02   -.139E+02 0.144E+02 -.214E+02   0.738E+00 -.224E+01 0.113E+01   0.197E-04 -.206E-05 -.338E-05
   0.131E+02 -.122E+02 0.203E+02   -.139E+02 0.144E+02 -.214E+02   0.738E+00 -.224E+01 0.113E+01   0.197E-04 -.206E-05 -.338E-05
   0.131E+02 -.122E+02 0.203E+02   -.139E+02 0.144E+02 -.214E+02   0.738E+00 -.224E+01 0.113E+01   0.197E-04 -.206E-05 -.338E-05
   0.131E+02 -.122E+02 0.203E+02   -.139E+02 0.144E+02 -.214E+02   0.738E+00 -.224E+01 0.113E+01   0.197E-04 -.206E-05 -.338E-05
   0.131E+02 -.122E+02 0.203E+02   -.139E+02 0.144E+02 -.214E+02   0.738E+00 -.224E+01 0.113E+01   0.197E-04 -.206E-05 -.338E-05
   0.778E+01 -.161E+02 -.203E+02   -.972E+01 0.175E+02 0.215E+02   0.194E+01 -.135E+01 -.113E+01   0.125E-04 -.364E-05 -.118E-04
   0.778E+01 -.161E+02 -.203E+02   -.972E+01 0.175E+02 0.215E+02   0.194E+01 -.135E+01 -.113E+01   0.125E-04 -.364E-05 -.118E-04
   0.778E+01 -.161E+02 -.203E+02   -.972E+01 0.175E+02 0.215E+02   0.194E+01 -.135E+01 -.113E+01   0.125E-04 -.364E-05 -.118E-04
   0.778E+01 -.161E+02 -.203E+02   -.972E+01 0.175E+02 0.215E+02   0.194E+01 -.135E+01 -.113E+01   0.125E-04 -.364E-05 -.118E-04
   0.778E+01 -.161E+02 -.203E+02   -.972E+01 0.175E+02 0.215E+02   0.194E+01 -.135E+01 -.113E+01   0.125E-04 -.364E-05 -.118E-04
   0.778E+01 -.161E+02 -.203E+02   -.972E+01 0.175E+02 0.215E+02   0.194E+01 -.135E+01 -.113E+01   0.125E-04 -.364E-05 -.118E-04
   0.778E+01 -.161E+02 -.203E+02   -.972E+01 0.175E+02 0.215E+02   0.194E+01 -.135E+01 -.113E+01   0.125E-04 -.364E-05 -.118E-04
   0.778E+01 -.161E+02 -.203E+02   -.972E+01 0.175E+02 0.215E+02   0.194E+01 -.135E+01 -.113E+01   0.125E-04 -.364E-05 -.118E-04
   -.217E+02 -.161E+02 -.106E+01   0.235E+02 0.175E+02 -.248E+00   -.182E+01 -.135E+01 0.130E+01   -.242E-04 0.130E-04 -.100E-05
   -.217E+02 -.161E+02 -.106E+01   0.235E+02 0.175E+02 -.248E+00   -.182E+01 -.135E+01 0.130E+01   -.242E-04 0.130E-04 -.100E-05
   -.217E+02 -.161E+02 -.106E+01   0.235E+02 0.175E+02 -.248E+00   -.182E+01 -.135E+01 0.130E+01   -.242E-04 0.130E-04 -.100E-05
   -.217E+02 -.161E+02 -.106E+01   0.235E+02 0.175E+02 -.248E+00   -.182E+01 -.135E+01 0.130E+01   -.242E-04 0.130E-04 -.100E-05
   -.217E+02 -.161E+02 -.106E+01   0.235E+02 0.175E+02 -.248E+00   -.182E+01 -.135E+01 0.130E+01   -.242E-04 0.130E-04 -.100E-05
   -.217E+02 -.161E+02 -.106E+01   0.235E+02 0.175E+02 -.248E+00   -.182E+01 -.135E+01 0.130E+01   -.242E-04 0.130E-04 -.100E-05
   -.217E+02 -.161E+02 -.106E+01   0.235E+02 0.175E+02 -.248E+00   -.182E+01 -.135E+01 0.130E+01   -.242E-04 0.130E-04 -.100E-05
   -.217E+02 -.161E+02 -.106E+01   0.235E+02 0.175E+02 -.248E+00   -.182E+01 -.135E+01 0.130E+01   -.242E-04 0.130E-04 -.100E-05
   -.131E+02 0.122E+02 -.203E+02   0.139E+02 -.144E+02 0.214E+02   -.738E+00 0.224E+01 -.113E+01   -.197E-04 0.206E-05 0.338E-05
   -.131E+02 0.122E+02 -.203E+02   0.139E+02 -.144E+02 0.214E+02   -.738E+00 0.224E+01 -.113E+01   -.197E-04 0.206E-05 0.338E-05
   -.131E+02 0.122E+02 -.203E+02   0.139E+02 -.144E+02 0.214E+02   -.738E+00 0.224E+01 -.113E+01   -.197E-04 0.206E-05 0.338E-05
   -.131E+02 0.122E+02 -.203E+02   0.139E+02 -.144E+02 0.214E+02   -.738E+00 0.224E+01 -.113E+01   -.197E-04 0.206E-05 0.338E-05
   -.131E+02 0.122E+02 -.203E+02   0.139E+02 -.144E+02 0.214E+02   -.738E+00 0.224E+01 -.113E+01   -.197E-04 0.206E-05 0.338E-05
   -.131E+02 0.122E+02 -.203E+02   0.139E+02 -.144E+02 0.214E+02   -.738E+00 0.224E+01 -.113E+01   -.197E-04 0.206E-05 0.338E-05
   -.131E+02 0.122E+02 -.203E+02   0.139E+02 -.144E+02 0.214E+02   -.738E+00 0.224E+01 -.113E+01   -.197E-04 0.206E-05 0.338E-05
   -.131E+02 0.122E+02 -.203E+02   0.139E+02 -.144E+02 0.214E+02   -.738E+00 0.224E+01 -.113E+01   -.197E-04 0.206E-05 0.338E-05
   0.373E+02 0.667E+01 0.265E+02   -.419E+02 -.676E+01 -.286E+02   0.457E+01 0.797E-01 0.215E+01   0.157E-04 0.246E-05 0.752E-05
   0.373E+02 0.667E+01 0.265E+02   -.419E+02 -.676E+01 -.286E+02   0.457E+01 0.797E-01 0.215E+01   0.157E-04 0.246E-05 0.752E-05
   0.373E+02 0.667E+01 0.265E+02   -.419E+02 -.676E+01 -.286E+02   0.457E+01 0.797E-01 0.215E+01   0.157E-04 0.246E-05 0.752E-05
   0.373E+02 0.667E+01 0.265E+02   -.419E+02 -.676E+01 -.286E+02   0.457E+01 0.797E-01 0.215E+01   0.157E-04 0.246E-05 0.752E-05
   0.373E+02 0.667E+01 0.265E+02   -.419E+02 -.676E+01 -.286E+02   0.457E+01 0.797E-01 0.215E+01   0.157E-04 0.246E-05 0.752E-05
   0.373E+02 0.667E+01 0.265E+02   -.419E+02 -.676E+01 -.286E+02   0.457E+01 0.797E-01 0.215E+01   0.157E-04 0.246E-05 0.752E-05
   0.373E+02 0.667E+01 0.265E+02   -.419E+02 -.676E+01 -.286E+02   0.457E+01 0.797E-01 0.215E+01   0.157E-04 0.246E-05 0.752E-05
   0.373E+02 0.667E+01 0.265E+02   -.419E+02 -.676E+01 -.286E+02   0.457E+01 0.797E-01 0.215E+01   0.157E-04 0.246E-05 0.752E-05
   0.902E+01 0.670E+01 0.449E+02   -.913E+01 -.677E+01 -.499E+02   0.110E+00 0.767E-01 0.501E+01   0.437E-05 0.155E-04 0.137E-04
   0.902E+01 0.670E+01 0.449E+02   -.913E+01 -.677E+01 -.499E+02   0.110E+00 0.767E-01 0.501E+01   0.437E-05 0.155E-04 0.137E-04
   0.902E+01 0.670E+01 0.449E+02   -.913E+01 -.677E+01 -.499E+02   0.110E+00 0.767E-01 0.501E+01   0.437E-05 0.155E-04 0.137E-04
   0.902E+01 0.670E+01 0.449E+02   -.913E+01 -.677E+01 -.499E+02   0.110E+00 0.767E-01 0.501E+01   0.437E-05 0.155E-04 0.137E-04
[...]
   0.154E+02 0.114E+02 0.237E+02   -.158E+02 -.117E+02 -.243E+02   0.427E+00 0.319E+00 0.657E+00   0.325E-04 -.248E-04 -.125E-05
   0.154E+02 0.114E+02 0.237E+02   -.158E+02 -.117E+02 -.243E+02   0.427E+00 0.319E+00 0.657E+00   0.325E-04 -.248E-04 -.125E-05
   0.154E+02 0.114E+02 0.237E+02   -.158E+02 -.117E+02 -.243E+02   0.427E+00 0.319E+00 0.657E+00   0.325E-04 -.248E-04 -.125E-05
   0.154E+02 0.114E+02 0.237E+02   -.158E+02 -.117E+02 -.243E+02   0.427E+00 0.319E+00 0.657E+00   0.325E-04 -.248E-04 -.125E-05
   0.154E+02 0.114E+02 0.237E+02   -.158E+02 -.117E+02 -.243E+02   0.427E+00 0.319E+00 0.657E+00   0.325E-04 -.248E-04 -.125E-05
   0.154E+02 0.114E+02 0.237E+02   -.158E+02 -.117E+02 -.243E+02   0.427E+00 0.319E+00 0.657E+00   0.325E-04 -.248E-04 -.125E-05
   -.154E+02 -.114E+02 -.237E+02   0.158E+02 0.117E+02 0.243E+02   -.427E+00 -.319E+00 -.657E+00   -.325E-04 0.248E-04 0.125E-05
   -.154E+02 -.114E+02 -.237E+02   0.158E+02 0.117E+02 0.243E+02   -.427E+00 -.319E+00 -.657E+00   -.325E-04 0.248E-04 0.125E-05
   -.154E+02 -.114E+02 -.237E+02   0.158E+02 0.117E+02 0.243E+02   -.427E+00 -.319E+00 -.657E+00   -.325E-04 0.248E-04 0.125E-05
   -.154E+02 -.114E+02 -.237E+02   0.158E+02 0.117E+02 0.243E+02   -.427E+00 -.319E+00 -.657E+00   -.325E-04 0.248E-04 0.125E-05
   -.154E+02 -.114E+02 -.237E+02   0.158E+02 0.117E+02 0.243E+02   -.427E+00 -.319E+00 -.657E+00   -.325E-04 0.248E-04 0.125E-05
   -.154E+02 -.114E+02 -.237E+02   0.158E+02 0.117E+02 0.243E+02   -.427E+00 -.319E+00 -.657E+00   -.325E-04 0.248E-04 0.125E-05
   -.154E+02 -.114E+02 -.237E+02   0.158E+02 0.117E+02 0.243E+02   -.427E+00 -.319E+00 -.657E+00   -.325E-04 0.248E-04 0.125E-05
   -.154E+02 -.114E+02 -.237E+02   0.158E+02 0.117E+02 0.243E+02   -.427E+00 -.319E+00 -.657E+00   -.325E-04 0.248E-04 0.125E-05
   0.650E-12 0.116E-10 -.898E-11   0.746E-13 0.199E-12 -.160E-12   -.153E-13 -.277E-13 -.289E-13   -.350E-11 -.663E-11 0.123E-12

 POSITION                                       TOTAL-FORCE (eV/Angst)
      2.69792      3.66688      6.60790         0.001809     -0.003002      0.001453
      2.75919      3.71130     11.81283         0.001809     -0.003002      0.001453
      4.11040      8.18197      8.78155         0.001809     -0.003002      0.001453
      4.17167      8.22638     13.98647         0.001809     -0.003002      0.001453
      7.43052      3.71183      8.78258         0.001809     -0.003002      0.001453
      7.49179      3.75625     13.98750         0.001809     -0.003002      0.001453
      8.84300      8.22692     10.95623         0.001809     -0.003002      0.001453
      8.90427      8.27133     16.16115         0.001809     -0.003002      0.001453
      4.94265      3.66741      5.15305        -0.002084     -0.003521      0.000073
      5.00392      3.71182     10.35798        -0.002084     -0.003521      0.000073
      6.35512      8.18250      7.32670        -0.002084     -0.003521      0.000073
      6.41639      8.22691     12.53163        -0.002084     -0.003521      0.000073
      9.67525      3.71236      7.32773        -0.002084     -0.003521      0.000073
      9.73652      3.75677     12.53265        -0.002084     -0.003521      0.000073
     11.08772      8.22745      9.50138        -0.002084     -0.003521      0.000073
     11.14899      8.27186     14.70630        -0.002084     -0.003521      0.000073
      4.29346      1.51963      6.60894        -0.000820     -0.002280      0.001106
      4.35473      1.56404     11.81387        -0.000820     -0.002280      0.001106
      5.70593      6.03471      8.78259        -0.000820     -0.002280      0.001106
      5.76720      6.07912     13.98751        -0.000820     -0.002280      0.001106
      9.02606      1.56458      8.78362        -0.000820     -0.002280      0.001106
      9.08733      1.60899     13.98854        -0.000820     -0.002280      0.001106
     10.43853      6.07966     10.95727        -0.000820     -0.002280      0.001106
     10.49980      6.12407     16.16219        -0.000820     -0.002280      0.001106
      3.50842      0.93757      2.94535        -0.001809      0.003002     -0.001453
      3.56969      0.98198      8.15027        -0.001809      0.003002     -0.001453
      4.92089      5.45265      5.11899        -0.001809      0.003002     -0.001453
      4.98216      5.49706     10.32392        -0.001809      0.003002     -0.001453
      8.24102      0.98252      5.12002        -0.001809      0.003002     -0.001453
      8.30229      1.02693     10.32495        -0.001809      0.003002     -0.001453
      9.65349      5.49760      7.29367        -0.001809      0.003002     -0.001453
      9.71476      5.54201     12.49859        -0.001809      0.003002     -0.001453
      1.26370      0.93704      4.40019         0.002084      0.003521     -0.000073
      1.32497      0.98145      9.60512         0.002084      0.003521     -0.000073
      2.67617      5.45212      6.57384         0.002084      0.003521     -0.000073
      2.73744      5.49654     11.77877         0.002084      0.003521     -0.000073
      5.99629      0.98199      6.57487         0.002084      0.003521     -0.000073
      6.05757      1.02640     11.77979         0.002084      0.003521     -0.000073
      7.40877      5.49707      8.74852         0.002084      0.003521     -0.000073
      7.47004      5.54149     13.95344         0.002084      0.003521     -0.000073
      1.91289      3.08482      2.94431         0.000820      0.002280     -0.001106
      1.97416      3.12924      8.14923         0.000820      0.002280     -0.001106
      3.32536      7.59991      5.11795         0.000820      0.002280     -0.001106
      3.38663      7.64432     10.32288         0.000820      0.002280     -0.001106
      6.64549      3.12977      5.11898         0.000820      0.002280     -0.001106
      6.70676      3.17419     10.32391         0.000820      0.002280     -0.001106
      8.05796      7.64486      7.29263         0.000820      0.002280     -0.001106
      8.11923      7.68927     12.49755         0.000820      0.002280     -0.001106
      3.14346      0.03437      1.45115         0.000655     -0.001554     -0.002278
      3.20473      0.07879      6.65608         0.000655     -0.001554     -0.002278
      4.55594      4.54946      3.62480         0.000655     -0.001554     -0.002278
      4.61721      4.59387      8.82973         0.000655     -0.001554     -0.002278
      7.87606      0.07932      3.62583         0.000655     -0.001554     -0.002278
      7.93733      0.12374      8.83075         0.000655     -0.001554     -0.002278
      9.28854      4.59441      5.79948         0.000655     -0.001554     -0.002278
      9.34981      4.63882     11.00440         0.000655     -0.001554     -0.002278
      0.04558      0.03327      3.46082         0.002036     -0.000428     -0.000751
      0.10685      0.07768      8.66575         0.002036     -0.000428     -0.000751
      1.45805      4.54835      5.63447         0.002036     -0.000428     -0.000751
      1.51932      4.59276     10.83940         0.002036     -0.000428     -0.000751
[...]
      3.97860      2.95063     11.23485        -0.002089      0.003638     -0.003421
      5.32980      7.42130      8.20357        -0.002089      0.003638     -0.003421
      5.39107      7.46571     13.40850        -0.002089      0.003638     -0.003421
      8.64993      2.95117      8.20460        -0.002089      0.003638     -0.003421
      8.71120      2.99558     13.40953        -0.002089      0.003638     -0.003421
     10.06240      7.46625     10.37825        -0.002089      0.003638     -0.003421
     10.12367      7.51067     15.58317        -0.002089      0.003638     -0.003421
      2.28901      1.69823      3.52332         0.002089     -0.003638      0.003421
      2.35028      1.74264      8.72825         0.002089     -0.003638      0.003421
      3.70149      6.21332      5.69697         0.002089     -0.003638      0.003421
      3.76276      6.25773     10.90190         0.002089     -0.003638      0.003421
      7.02161      1.74318      5.69800         0.002089     -0.003638      0.003421
      7.08288      1.78760     10.90292         0.002089     -0.003638      0.003421
      8.43409      6.25827      7.87165         0.002089     -0.003638      0.003421
      8.49536      6.30268     13.07657         0.002089     -0.003638      0.003421
    total drift:                               -0.000000      0.000000     -0.000000

  FREE ENERGIE OF THE ION-ELECTRON SYSTEM (eV)
  free  energy   TOTEN  =      -793.99941215 eV

  energy  without entropy=     -793.99941215  energy(sigma->0) =     -793.99941215

 d Force = 0.5357591E-09[ 0.444E-09, 0.627E-09]  d Energy = 0.7080644E-07-0.703E-07
 d Force = 0.3890222E-03[ 0.389E-03, 0.389E-03]  d Ewald  = 0.4973322E-03-0.108E-03

 reached required accuracy - stopping structural energy minimisation
|           W    W    AA    RRRRR   N    N  II  N    N   GGGG   !!!           |
|           W    W   A  A   R    R  NN   N  II  NN   N  G    G  !!!           |
|           W    W  A    A  R    R  N N  N  II  N N  N  G       !!!           |
|           W WW W  AAAAAA  RRRRR   N  N N  II  N  N N  G  GGG   !            |
|           WW  WW  A    A  R   R   N   NN  II  N   NN  G    G                |
|           W    W  A    A  R    R  N    N  II  N    N   GGGG   !!!           |
|     Tetrahedron method does not include variations of the Fermi             |
|     occupations, so forces and stress will be inaccurate. We suggest        |
|     using a different smearing scheme ISMEAR = 1 or 2 for metals in         |
|     relaxations.                                                            |

 BZINTS: Fermi energy:    3.963820;  352.000000 electrons
         Band energy:-0.536598E+03;  BLOECHL correction:   -0.101939