 vasp.6.2.0 18Jan21 (build Feb 25 2021 07:51:20) complex
 executed on             LinuxPGI date 2022.05.17  13:24:10

 INCAR:
   ALGO = Fast
   PREC = Accurate
   EDIFF = 1E-6
   ENCUT = 700
   ISMEAR = -5
   IBRION = 2
   ISIF = 4
   LREAL = Auto
   LWAVE = False
   LCHARGE = False
   NSW = 300
   SIGMA = 0.05

 POTCAR:    PAW_PBE B 06Sep2000
 POTCAR:    PAW_PBE C 08Apr2002
 POTCAR:    PAW_PBE B 06Sep2000
   VRHFIN =B: s2p1

   TITEL  = PAW_PBE B 06Sep2000
   POMASS =   10.811; ZVAL   =    3.000    mass and valenz
   ENMAX  =  318.614; ENMIN  =  238.960 eV

 POTCAR:    PAW_PBE C 08Apr2002
   VRHFIN =C: s2p2

   TITEL  = PAW_PBE C 08Apr2002
   POMASS =   12.011; ZVAL   =    4.000    mass and valenz
   ENMAX  =  400.000; ENMIN  =  300.000 eV

 Optimization of the real space projectors (new method)

 maximal supplied QI-value         = 22.11
 optimisation between [QCUT,QGAM] = [ 13.49, 26.97] = [ 50.94,203.75] Ry
 Optimized for a Real-space Cutoff    1.14 Angstroem

   l    n(q)    QCUT    max X(q) W(low)/X(q) W(high)/X(q)  e(spline)
   0      9    13.487    53.033    0.17E-03    0.11E-03    0.20E-06
   0      9    13.487    34.740    0.17E-03    0.11E-03    0.20E-06
   1      9    13.487    30.949    0.61E-04    0.25E-04    0.11E-06
   1      9    13.487    19.518    0.55E-04    0.23E-04    0.10E-06
 Optimization of the real space projectors (new method)

 maximal supplied QI-value         = 25.13
 optimisation between [QCUT,QGAM] = [ 13.32, 26.89] = [ 49.69,202.52] Ry
 Optimized for a Real-space Cutoff    1.07 Angstroem

   l    n(q)    QCUT    max X(q) W(low)/X(q) W(high)/X(q)  e(spline)
   0      9    13.321   115.676    0.24E-03    0.18E-03    0.16E-06
   0      9    13.321    87.132    0.24E-03    0.18E-03    0.16E-06
   1      8    13.321     4.429    0.20E-03    0.27E-03    0.12E-06
   1      8    13.321     2.733    0.16E-03    0.21E-03    0.12E-06
  PAW_PBE B 06Sep2000                   :
  PAW_PBE C 08Apr2002                   :

 POSCAR: B96 C24
  positions in direct lattice
 exchange correlation table for  LEXCH =        8
   RHO(1)=    0.500       N(1)  =     2000
   RHO(2)=  100.500       N(2)  =     4000

 ion  position               nearest neighbor table
   1  0.158  0.404  0.404- 105 1.61  35 1.75  42 1.75  68 1.81  53 1.81  61 1.82
   2  0.158  0.404  0.904- 106 1.61  36 1.75  41 1.75  67 1.81  54 1.81  62 1.82
   3  0.158  0.904  0.404- 107 1.61  33 1.75  44 1.75  66 1.81  55 1.81  63 1.82
   4  0.158  0.904  0.904- 108 1.61  34 1.75  43 1.75  65 1.81  56 1.81  64 1.82
   5  0.658  0.404  0.404- 109 1.61  39 1.75  46 1.75  72 1.81  49 1.81  57 1.82
   6  0.658  0.404  0.904- 110 1.61  40 1.75  45 1.75  71 1.81  50 1.81  58 1.82
   7  0.658  0.904  0.404- 111 1.61  37 1.75  48 1.75  70 1.81  51 1.81  59 1.82
   8  0.658  0.904  0.904- 112 1.61  38 1.75  47 1.75  69 1.81  52 1.81  60 1.82
   9  0.402  0.402  0.157- 105 1.63  27 1.76  45 1.77  98 1.77  79 1.79  58 1.81
  10  0.402  0.402  0.657- 106 1.63  28 1.76  46 1.77  97 1.77  80 1.79  57 1.81
  11  0.402  0.902  0.157- 107 1.63  25 1.76  47 1.77 100 1.77  77 1.79  60 1.81
  12  0.402  0.902  0.657- 108 1.63  26 1.76  48 1.77  99 1.77  78 1.79  59 1.81
  13  0.902  0.402  0.157- 109 1.63  31 1.76  41 1.77 102 1.77  75 1.79  62 1.81
  14  0.902  0.402  0.657- 110 1.63  32 1.76  42 1.77 101 1.77  76 1.79  61 1.81
  15  0.902  0.902  0.157- 111 1.63  29 1.76  43 1.77 104 1.77  73 1.79  64 1.81
  16  0.902  0.902  0.657- 112 1.63  30 1.76  44 1.77 103 1.77  74 1.79  63 1.81
  17  0.402  0.157  0.402- 105 1.62  26 1.76  37 1.77  99 1.77  86 1.79  51 1.81
  18  0.402  0.157  0.902- 106 1.62  25 1.76  38 1.77 100 1.77  85 1.79  52 1.81
  19  0.402  0.657  0.402- 107 1.62  28 1.76  39 1.77  97 1.77  88 1.79  49 1.81
  20  0.402  0.657  0.902- 108 1.62  27 1.76  40 1.77  98 1.77  87 1.79  50 1.81
  21  0.902  0.157  0.402- 109 1.62  30 1.76  33 1.77 103 1.77  82 1.79  55 1.81
  22  0.902  0.157  0.902- 110 1.62  29 1.76  34 1.77 104 1.77  81 1.79  56 1.81
  23  0.902  0.657  0.402- 111 1.62  32 1.76  35 1.77 101 1.77  84 1.79  53 1.81
  24  0.902  0.657  0.902- 112 1.62  31 1.76  36 1.77 102 1.77  83 1.79  54 1.81
  25  0.341  0.097  0.097- 113 1.60 100 1.75  11 1.76  18 1.76  77 1.80  85 1.81
  26  0.341  0.097  0.597- 114 1.60  99 1.75  12 1.76  17 1.76  78 1.80  86 1.81
  27  0.341  0.597  0.097- 115 1.60  98 1.75   9 1.76  20 1.76  79 1.80  87 1.81
  28  0.341  0.597  0.597- 116 1.60  97 1.75  10 1.76  19 1.76  80 1.80  88 1.81
  29  0.841  0.097  0.097- 117 1.60 104 1.75  15 1.76  22 1.76  73 1.80  81 1.81
  30  0.841  0.097  0.597- 118 1.60 103 1.75  16 1.76  21 1.76  74 1.80  82 1.81
  31  0.841  0.597  0.097- 119 1.60 102 1.75  13 1.76  24 1.76  75 1.80  83 1.81
  32  0.841  0.597  0.597- 120 1.60 101 1.75  14 1.76  23 1.76  76 1.80  84 1.81
  33  0.099  0.097  0.344- 113 1.62   3 1.75  21 1.77  55 1.80  82 1.81  66 1.82
  34  0.099  0.097  0.844- 114 1.62   4 1.75  22 1.77  56 1.80  81 1.81  65 1.82
  35  0.099  0.597  0.344- 115 1.62   1 1.75  23 1.77  53 1.80  84 1.81  68 1.82
  36  0.099  0.597  0.844- 116 1.62   2 1.75  24 1.77  54 1.80  83 1.81  67 1.82
  37  0.599  0.097  0.344- 117 1.62   7 1.75  17 1.77  51 1.80  86 1.81  70 1.82
  38  0.599  0.097  0.844- 118 1.62   8 1.75  18 1.77  52 1.80  85 1.81  69 1.82
  39  0.599  0.597  0.344- 119 1.62   5 1.75  19 1.77  49 1.80  88 1.81  72 1.82
  40  0.599  0.597  0.844- 120 1.62   6 1.75  20 1.77  50 1.80  87 1.81  71 1.82
  41  0.099  0.344  0.097- 113 1.62   2 1.75  13 1.77  62 1.80  75 1.81  67 1.82
  42  0.099  0.344  0.597- 114 1.62   1 1.75  14 1.77  61 1.80  76 1.81  68 1.82
  43  0.099  0.844  0.097- 115 1.62   4 1.75  15 1.77  64 1.80  73 1.81  65 1.82
  44  0.099  0.844  0.597- 116 1.62   3 1.75  16 1.77  63 1.80  74 1.81  66 1.82
  45  0.599  0.344  0.097- 117 1.62   6 1.75   9 1.77  58 1.80  79 1.81  71 1.82
  46  0.599  0.344  0.597- 118 1.62   5 1.75  10 1.77  57 1.80  80 1.81  72 1.82
  47  0.599  0.844  0.097- 119 1.62   8 1.75  11 1.77  60 1.80  77 1.81  69 1.82
  48  0.599  0.844  0.597- 120 1.62   7 1.75  12 1.77  59 1.80  78 1.81  70 1.82
  49  0.494  0.497  0.337-  79 1.74  97 1.79  39 1.80  19 1.81  57 1.81   5 1.81
  50  0.494  0.497  0.837-  80 1.74  98 1.79  40 1.80  20 1.81  58 1.81   6 1.81
  51  0.494  0.997  0.337-  77 1.74  99 1.79  37 1.80  17 1.81  59 1.81   7 1.81
  52  0.494  0.997  0.837-  78 1.74 100 1.79  38 1.80  18 1.81  60 1.81   8 1.81
  53  0.994  0.497  0.337-  75 1.74 101 1.79  35 1.80  23 1.81  61 1.81   1 1.81
  54  0.994  0.497  0.837-  76 1.74 102 1.79  36 1.80  24 1.81  62 1.81   2 1.81
  55  0.994  0.997  0.337-  73 1.74 103 1.79  33 1.80  21 1.81  63 1.81   3 1.81
  56  0.994  0.997  0.837-  74 1.74 104 1.79  34 1.80  22 1.81  64 1.81   4 1.81
  57  0.494  0.337  0.497-  86 1.74  97 1.78  46 1.80  49 1.81  10 1.81   5 1.82
  58  0.494  0.337  0.997-  85 1.74  98 1.78  45 1.80  50 1.81   9 1.81   6 1.82
  59  0.494  0.837  0.497-  88 1.74  99 1.78  48 1.80  51 1.81  12 1.81   7 1.82
  60  0.494  0.837  0.997-  87 1.74 100 1.78  47 1.80  52 1.81  11 1.81   8 1.82
[...]
 106  0.306  0.309  0.809-  90 1.44   2 1.61  18 1.62  10 1.63
 107  0.306  0.809  0.309-  91 1.44   3 1.61  19 1.62  11 1.63
 108  0.306  0.809  0.809-  92 1.44   4 1.61  20 1.62  12 1.63
 109  0.806  0.309  0.309-  93 1.44   5 1.61  21 1.62  13 1.63
 110  0.806  0.309  0.809-  94 1.44   6 1.61  22 1.62  14 1.63
 111  0.806  0.809  0.309-  95 1.44   7 1.61  23 1.62  15 1.63
 112  0.806  0.809  0.809-  96 1.44   8 1.61  24 1.62  16 1.63
 113  0.191  0.189  0.189-  89 1.43  25 1.60  41 1.62  33 1.62
 114  0.191  0.189  0.689-  90 1.43  26 1.60  42 1.62  34 1.62
 115  0.191  0.689  0.189-  91 1.43  27 1.60  43 1.62  35 1.62
 116  0.191  0.689  0.689-  92 1.43  28 1.60  44 1.62  36 1.62
 117  0.691  0.189  0.189-  93 1.43  29 1.60  45 1.62  37 1.62
 118  0.691  0.189  0.689-  94 1.43  30 1.60  46 1.62  38 1.62
 119  0.691  0.689  0.189-  95 1.43  31 1.60  47 1.62  39 1.62
 120  0.691  0.689  0.689-  96 1.43  32 1.60  48 1.62  40 1.62

  LATTYP: Found a triclinic cell.
 ALAT       =    19.0087368153
 B/A-ratio  =     0.5918502818
 C/A-ratio  =     1.6516819507
 COS(alpha) =     0.0006159862
 COS(beta)  =     0.4423436020
 COS(gamma) =     0.8874404535

  Lattice vectors:

 A1 = (   2.8072940000,   8.9555040000, -16.5302790000)
 A2 = (   2.7553380000,   9.0275370000,  -6.1222160000)
 A3 = (   4.0281690000, -18.2930170000, -25.1966770000)

Analysis of symmetry for initial positions (statically):
 Subroutine PRICEL returns following result:

[...]

   8 primitive cells build up your supercell.

 Routine SETGRP: Setting up the symmetry group for a
 triclinic supercell.

 Subroutine GETGRP returns: Found  1 space group operations
 (whereof  1 operations were pure point group operations)
 out of a pool of  2 trial point group operations.

The static configuration has the point symmetry C_1 .

Analysis of symmetry for dynamics (positions and initial velocities):
 Subroutine PRICEL returns following result:

  LATTYP: Found a triclinic cell.
 ALAT       =     9.5043684077
 B/A-ratio  =     0.5918502818
 C/A-ratio  =     1.6516819507
 COS(alpha) =     0.0006159862
 COS(beta)  =     0.4423436020
 COS(gamma) =     0.8874404535

  Lattice vectors:

 A1 = (   1.4036470000,   4.4777520000,  -8.2651395000)
 A2 = (   1.3776690000,   4.5137685000,  -3.0611080000)
 A3 = (   2.0140845000,  -9.1465085000, -12.5983385000)

   8 primitive cells build up your supercell.

 Routine SETGRP: Setting up the symmetry group for a
 triclinic supercell.

 Subroutine GETGRP returns: Found  1 space group operations
 (whereof  1 operations were pure point group operations)
 out of a pool of  2 trial point group operations.

The dynamic configuration has the point symmetry C_1 .

 Subroutine INISYM returns: Found  1 space group operations
 (whereof  1 operations are pure point group operations),
 and found     8 'primitive' translations

                                     Primitive cell

  volume of cell :     110.2780

  direct lattice vectors                    reciprocal lattice vectors
     1.403647000  4.477752000 -8.265139500    -0.769549723  0.101479954 -0.196702559
     1.377669000  4.513768500 -3.061108000     1.197059778 -0.009402876  0.198199392
     2.014084500 -9.146508500-12.598338500     0.214004930 -0.064291236  0.001513243

  length of vectors
     9.504368408  5.625163121 15.698193752     0.800747684  1.213393393  0.223458638

  position of ions in fractional coordinates (direct lattice)
     0.121584000  0.317624000  0.315846000
     0.667828000  0.743376000  0.803264000
     0.667828000  0.253140000  0.803264000
     0.882412000  0.676382000  0.682732000
     0.329306000  0.259166000  0.197400000
     0.329306000  0.752916000  0.197400000
     0.376030000  0.596556000  0.988894000
     0.376030000  0.275354000  0.988894000
     0.621840000  0.067240000  0.341590000
     0.637966000  0.381444000  0.006950000
     0.637966000  0.704658000  0.006950000
     0.020004000  0.469994000  0.495990000
     0.301600000  0.047600000  0.676672000
     0.313548000  0.529678000  0.612176000
     0.716748000  0.424878000  0.381978000

  ion indices of the primitive-cell ions
[...]
   -.190E+02 0.121E+02 0.936E+01   0.205E+02 -.128E+02 -.980E+01   -.157E+01 0.773E+00 0.441E+00   -.605E-04 -.438E-04 -.139E-03
   -.190E+02 0.121E+02 0.936E+01   0.205E+02 -.128E+02 -.980E+01   -.157E+01 0.773E+00 0.441E+00   -.605E-04 -.439E-04 -.140E-03
   -.190E+02 0.121E+02 0.936E+01   0.205E+02 -.128E+02 -.980E+01   -.157E+01 0.773E+00 0.441E+00   -.605E-04 -.442E-04 -.139E-03
   -.190E+02 0.121E+02 0.936E+01   0.205E+02 -.128E+02 -.980E+01   -.157E+01 0.773E+00 0.441E+00   -.607E-04 -.441E-04 -.139E-03
   -.190E+02 0.121E+02 0.936E+01   0.205E+02 -.128E+02 -.980E+01   -.157E+01 0.773E+00 0.441E+00   -.612E-04 -.438E-04 -.139E-03
   -.190E+02 0.121E+02 0.936E+01   0.205E+02 -.128E+02 -.980E+01   -.157E+01 0.773E+00 0.441E+00   -.605E-04 -.440E-04 -.139E-03
   -.190E+02 0.121E+02 0.936E+01   0.205E+02 -.128E+02 -.980E+01   -.157E+01 0.773E+00 0.441E+00   -.607E-04 -.441E-04 -.139E-03
   -.190E+02 0.121E+02 0.936E+01   0.205E+02 -.128E+02 -.980E+01   -.157E+01 0.773E+00 0.441E+00   -.609E-04 -.438E-04 -.140E-03
   0.136E+02 0.188E+02 -.214E+02   -.138E+02 -.203E+02 0.242E+02   0.196E+00 0.152E+01 -.278E+01   -.304E-04 0.456E-04 -.239E-04
   0.136E+02 0.188E+02 -.214E+02   -.138E+02 -.203E+02 0.242E+02   0.196E+00 0.152E+01 -.278E+01   -.303E-04 0.454E-04 -.248E-04
   0.136E+02 0.188E+02 -.214E+02   -.138E+02 -.203E+02 0.242E+02   0.196E+00 0.152E+01 -.278E+01   -.307E-04 0.451E-04 -.246E-04
   0.136E+02 0.188E+02 -.214E+02   -.138E+02 -.203E+02 0.242E+02   0.196E+00 0.152E+01 -.278E+01   -.304E-04 0.454E-04 -.241E-04
   0.136E+02 0.188E+02 -.214E+02   -.138E+02 -.203E+02 0.242E+02   0.196E+00 0.152E+01 -.278E+01   -.306E-04 0.456E-04 -.245E-04
   0.136E+02 0.188E+02 -.214E+02   -.138E+02 -.203E+02 0.242E+02   0.196E+00 0.152E+01 -.278E+01   -.306E-04 0.452E-04 -.245E-04
   0.136E+02 0.188E+02 -.214E+02   -.138E+02 -.203E+02 0.242E+02   0.196E+00 0.152E+01 -.278E+01   -.304E-04 0.452E-04 -.243E-04
   0.136E+02 0.188E+02 -.214E+02   -.138E+02 -.203E+02 0.242E+02   0.196E+00 0.152E+01 -.278E+01   -.307E-04 0.454E-04 -.245E-04
   -.974E+00 -.295E+02 0.113E+02   0.213E+01 0.324E+02 -.116E+02   -.115E+01 -.295E+01 0.247E+00   -.352E-04 -.595E-04 0.628E-05
   -.974E+00 -.295E+02 0.113E+02   0.213E+01 0.324E+02 -.116E+02   -.115E+01 -.295E+01 0.247E+00   -.353E-04 -.599E-04 0.583E-05
   -.974E+00 -.295E+02 0.113E+02   0.213E+01 0.324E+02 -.116E+02   -.115E+01 -.295E+01 0.247E+00   -.355E-04 -.600E-04 0.586E-05
   -.974E+00 -.295E+02 0.113E+02   0.213E+01 0.324E+02 -.116E+02   -.115E+01 -.295E+01 0.247E+00   -.353E-04 -.594E-04 0.608E-05
   -.974E+00 -.295E+02 0.113E+02   0.213E+01 0.324E+02 -.116E+02   -.115E+01 -.295E+01 0.247E+00   -.356E-04 -.599E-04 0.601E-05
   -.974E+00 -.295E+02 0.113E+02   0.213E+01 0.324E+02 -.116E+02   -.115E+01 -.295E+01 0.247E+00   -.355E-04 -.596E-04 0.612E-05
   -.974E+00 -.295E+02 0.113E+02   0.213E+01 0.324E+02 -.116E+02   -.115E+01 -.295E+01 0.247E+00   -.355E-04 -.595E-04 0.613E-05
   -.974E+00 -.295E+02 0.113E+02   0.213E+01 0.324E+02 -.116E+02   -.115E+01 -.295E+01 0.247E+00   -.353E-04 -.598E-04 0.571E-05
   0.131E+02 -.168E+02 -.190E+02   -.142E+02 0.185E+02 0.209E+02   0.115E+01 -.169E+01 -.198E+01   -.131E-03 0.678E-05 -.440E-04
   0.131E+02 -.168E+02 -.190E+02   -.142E+02 0.185E+02 0.209E+02   0.115E+01 -.169E+01 -.198E+01   -.131E-03 0.710E-05 -.435E-04
   0.131E+02 -.168E+02 -.190E+02   -.142E+02 0.185E+02 0.209E+02   0.115E+01 -.169E+01 -.198E+01   -.131E-03 0.721E-05 -.433E-04
   0.131E+02 -.168E+02 -.190E+02   -.142E+02 0.185E+02 0.209E+02   0.115E+01 -.169E+01 -.198E+01   -.131E-03 0.687E-05 -.441E-04
   0.131E+02 -.168E+02 -.190E+02   -.142E+02 0.185E+02 0.209E+02   0.115E+01 -.169E+01 -.198E+01   -.131E-03 0.724E-05 -.437E-04
   0.131E+02 -.168E+02 -.190E+02   -.142E+02 0.185E+02 0.209E+02   0.115E+01 -.169E+01 -.198E+01   -.132E-03 0.693E-05 -.438E-04
   0.131E+02 -.168E+02 -.190E+02   -.142E+02 0.185E+02 0.209E+02   0.115E+01 -.169E+01 -.198E+01   -.131E-03 0.681E-05 -.438E-04
   0.131E+02 -.168E+02 -.190E+02   -.142E+02 0.185E+02 0.209E+02   0.115E+01 -.169E+01 -.198E+01   -.131E-03 0.723E-05 -.438E-04
   -.161E+02 -.137E+02 0.902E+01   0.169E+02 0.140E+02 -.104E+02   -.742E+00 -.343E+00 0.133E+01   -.120E-04 -.461E-05 -.593E-04
   -.161E+02 -.137E+02 0.902E+01   0.169E+02 0.140E+02 -.104E+02   -.742E+00 -.343E+00 0.133E+01   -.119E-04 -.442E-05 -.592E-04
   -.161E+02 -.137E+02 0.902E+01   0.169E+02 0.140E+02 -.104E+02   -.742E+00 -.343E+00 0.133E+01   -.116E-04 -.432E-05 -.590E-04
   -.161E+02 -.137E+02 0.902E+01   0.169E+02 0.140E+02 -.104E+02   -.742E+00 -.343E+00 0.133E+01   -.120E-04 -.427E-05 -.594E-04
   -.161E+02 -.137E+02 0.902E+01   0.169E+02 0.140E+02 -.104E+02   -.742E+00 -.343E+00 0.133E+01   -.120E-04 -.426E-05 -.591E-04
   -.161E+02 -.137E+02 0.902E+01   0.169E+02 0.140E+02 -.104E+02   -.742E+00 -.343E+00 0.133E+01   -.122E-04 -.444E-05 -.594E-04
   -.161E+02 -.137E+02 0.902E+01   0.169E+02 0.140E+02 -.104E+02   -.742E+00 -.343E+00 0.133E+01   -.125E-04 -.454E-05 -.591E-04
   -.161E+02 -.137E+02 0.902E+01   0.169E+02 0.140E+02 -.104E+02   -.742E+00 -.343E+00 0.133E+01   -.119E-04 -.436E-05 -.592E-04
   -.653E+01 0.181E+02 -.125E+02   0.670E+01 -.197E+02 0.125E+02   -.169E+00 0.155E+01 0.466E-01   0.629E-05 -.677E-04 0.202E-04
   -.653E+01 0.181E+02 -.125E+02   0.670E+01 -.197E+02 0.125E+02   -.169E+00 0.155E+01 0.466E-01   0.644E-05 -.676E-04 0.204E-04
   -.653E+01 0.181E+02 -.125E+02   0.670E+01 -.197E+02 0.125E+02   -.169E+00 0.155E+01 0.466E-01   0.649E-05 -.679E-04 0.205E-04
   -.653E+01 0.181E+02 -.125E+02   0.670E+01 -.197E+02 0.125E+02   -.169E+00 0.155E+01 0.466E-01   0.626E-05 -.680E-04 0.203E-04
   -.653E+01 0.181E+02 -.125E+02   0.670E+01 -.197E+02 0.125E+02   -.169E+00 0.155E+01 0.466E-01   0.643E-05 -.677E-04 0.204E-04
   -.653E+01 0.181E+02 -.125E+02   0.670E+01 -.197E+02 0.125E+02   -.169E+00 0.155E+01 0.466E-01   0.611E-05 -.676E-04 0.203E-04
   -.653E+01 0.181E+02 -.125E+02   0.670E+01 -.197E+02 0.125E+02   -.169E+00 0.155E+01 0.466E-01   0.588E-05 -.677E-04 0.202E-04
   -.653E+01 0.181E+02 -.125E+02   0.670E+01 -.197E+02 0.125E+02   -.169E+00 0.155E+01 0.466E-01   0.637E-05 -.677E-04 0.204E-04
   -.133E+01 0.498E+01 0.538E+02   0.290E+01 -.515E+01 -.592E+02   -.156E+01 0.171E+00 0.539E+01   0.236E-04 -.562E-04 0.150E-04
   -.133E+01 0.498E+01 0.538E+02   0.290E+01 -.515E+01 -.592E+02   -.156E+01 0.171E+00 0.539E+01   0.242E-04 -.562E-04 0.144E-04
   -.133E+01 0.498E+01 0.538E+02   0.290E+01 -.515E+01 -.592E+02   -.156E+01 0.171E+00 0.539E+01   0.242E-04 -.563E-04 0.147E-04
   -.133E+01 0.498E+01 0.538E+02   0.290E+01 -.515E+01 -.592E+02   -.156E+01 0.171E+00 0.539E+01   0.241E-04 -.562E-04 0.148E-04
   -.133E+01 0.498E+01 0.538E+02   0.290E+01 -.515E+01 -.592E+02   -.156E+01 0.171E+00 0.539E+01   0.240E-04 -.562E-04 0.148E-04
   -.133E+01 0.498E+01 0.538E+02   0.290E+01 -.515E+01 -.592E+02   -.156E+01 0.171E+00 0.539E+01   0.239E-04 -.559E-04 0.145E-04
   -.133E+01 0.498E+01 0.538E+02   0.290E+01 -.515E+01 -.592E+02   -.156E+01 0.171E+00 0.539E+01   0.240E-04 -.563E-04 0.147E-04
   -.133E+01 0.498E+01 0.538E+02   0.290E+01 -.515E+01 -.592E+02   -.156E+01 0.171E+00 0.539E+01   0.240E-04 -.563E-04 0.148E-04
   0.111E+02 0.461E+02 0.259E+02   -.111E+02 -.514E+02 -.278E+02   -.211E-01 0.527E+01 0.193E+01   0.251E-04 -.141E-04 -.731E-04
   0.111E+02 0.461E+02 0.259E+02   -.111E+02 -.514E+02 -.278E+02   -.211E-01 0.527E+01 0.193E+01   0.256E-04 -.144E-04 -.732E-04
   0.111E+02 0.461E+02 0.259E+02   -.111E+02 -.514E+02 -.278E+02   -.211E-01 0.527E+01 0.193E+01   0.254E-04 -.146E-04 -.732E-04
   0.111E+02 0.461E+02 0.259E+02   -.111E+02 -.514E+02 -.278E+02   -.211E-01 0.527E+01 0.193E+01   0.251E-04 -.143E-04 -.731E-04
[...]
   -.142E+02 -.121E+02 -.243E+02   0.160E+02 0.145E+02 0.285E+02   -.174E+01 -.238E+01 -.428E+01   -.866E-04 0.501E-04 0.330E-04
   -.142E+02 -.121E+02 -.243E+02   0.160E+02 0.145E+02 0.285E+02   -.174E+01 -.238E+01 -.428E+01   -.864E-04 0.503E-04 0.332E-04
   -.142E+02 -.121E+02 -.243E+02   0.160E+02 0.145E+02 0.285E+02   -.174E+01 -.238E+01 -.428E+01   -.871E-04 0.505E-04 0.330E-04
   -.142E+02 -.121E+02 -.243E+02   0.160E+02 0.145E+02 0.285E+02   -.174E+01 -.238E+01 -.428E+01   -.868E-04 0.508E-04 0.333E-04
   -.142E+02 -.121E+02 -.243E+02   0.160E+02 0.145E+02 0.285E+02   -.174E+01 -.238E+01 -.428E+01   -.868E-04 0.503E-04 0.335E-04
   -.142E+02 -.121E+02 -.243E+02   0.160E+02 0.145E+02 0.285E+02   -.174E+01 -.238E+01 -.428E+01   -.870E-04 0.505E-04 0.326E-04
   0.195E+02 0.117E+02 0.259E+02   -.218E+02 -.143E+02 -.308E+02   0.228E+01 0.262E+01 0.488E+01   -.373E-04 -.162E-04 -.235E-03
   0.195E+02 0.117E+02 0.259E+02   -.218E+02 -.143E+02 -.308E+02   0.228E+01 0.262E+01 0.488E+01   -.371E-04 -.159E-04 -.235E-03
   0.195E+02 0.117E+02 0.259E+02   -.218E+02 -.143E+02 -.308E+02   0.228E+01 0.262E+01 0.488E+01   -.370E-04 -.160E-04 -.235E-03
   0.195E+02 0.117E+02 0.259E+02   -.218E+02 -.143E+02 -.308E+02   0.228E+01 0.262E+01 0.488E+01   -.375E-04 -.160E-04 -.235E-03
   0.195E+02 0.117E+02 0.259E+02   -.218E+02 -.143E+02 -.308E+02   0.228E+01 0.262E+01 0.488E+01   -.376E-04 -.157E-04 -.235E-03
   0.195E+02 0.117E+02 0.259E+02   -.218E+02 -.143E+02 -.308E+02   0.228E+01 0.262E+01 0.488E+01   -.376E-04 -.157E-04 -.235E-03
   0.195E+02 0.117E+02 0.259E+02   -.218E+02 -.143E+02 -.308E+02   0.228E+01 0.262E+01 0.488E+01   -.381E-04 -.161E-04 -.235E-03
   0.195E+02 0.117E+02 0.259E+02   -.218E+02 -.143E+02 -.308E+02   0.228E+01 0.262E+01 0.488E+01   -.376E-04 -.158E-04 -.235E-03
   -.634E+01 -.781E+01 -.144E+02   0.306E-12 -.515E-12 0.497E-13   0.629E+01 0.782E+01 0.143E+02   0.646E-04 -.112E-03 -.133E-02

 POSITION                                       TOTAL-FORCE (eV/Angst)
      2.50625      3.74475      6.63861         0.000333      0.000243      0.000857
      2.47159      3.79629     11.86667         0.000333      0.000243      0.000857
      3.83709      8.31458      8.80252         0.000333      0.000243      0.000857
      3.80243      8.36611     14.03058         0.000333      0.000243      0.000857
      7.13103      3.76957      8.73602         0.000333      0.000243      0.000857
      7.09637      3.82110     13.96409         0.000333      0.000243      0.000857
      8.46187      8.33939     10.89993         0.000333      0.000243      0.000857
      8.42721      8.39092     16.12800         0.000333      0.000243      0.000857
      4.77014      3.70478      5.07195        -0.000175     -0.000504     -0.000211
      4.73547      3.75631     10.30002        -0.000175     -0.000504     -0.000211
      6.10097      8.27460      7.23586        -0.000175     -0.000504     -0.000211
      6.06631      8.32613     12.46393        -0.000175     -0.000504     -0.000211
      9.39492      3.72959      7.16937        -0.000175     -0.000504     -0.000211
      9.36025      3.78112     12.39743        -0.000175     -0.000504     -0.000211
     10.72575      8.29941      9.33328        -0.000175     -0.000504     -0.000211
     10.69109      8.35094     14.56134        -0.000175     -0.000504     -0.000211
      4.10516      1.50443      6.56413        -0.000162      0.000056     -0.000376
      4.07049      1.55596     11.79219        -0.000162      0.000056     -0.000376
      5.43599      6.07426      8.72804        -0.000162      0.000056     -0.000376
      5.40133      6.12579     13.95610        -0.000162      0.000056     -0.000376
      8.72994      1.52925      8.66155        -0.000162      0.000056     -0.000376
      8.69527      1.58078     13.88961        -0.000162      0.000056     -0.000376
     10.06077      6.09907     10.82546        -0.000162      0.000056     -0.000376
     10.02611      6.15060     16.05352        -0.000162      0.000056     -0.000376
      3.41333      0.90391      2.85387        -0.000439      0.000395     -0.000299
      3.37867      0.95544      8.08193        -0.000439      0.000395     -0.000299
      4.74417      5.47373      5.01778        -0.000439      0.000395     -0.000299
      4.70950      5.52526     10.24584        -0.000439      0.000395     -0.000299
      8.03811      0.92872      4.95129        -0.000439      0.000395     -0.000299
      8.00345      0.98025     10.17935        -0.000439      0.000395     -0.000299
      9.36895      5.49854      7.11520        -0.000439      0.000395     -0.000299
      9.33428      5.55007     12.34326        -0.000439      0.000395     -0.000299
      1.15290      0.93260      4.42946        -0.000410     -0.000342     -0.000013
      1.11824      0.98413      9.65752        -0.000410     -0.000342     -0.000013
      2.48374      5.50243      6.59337        -0.000410     -0.000342     -0.000013
      2.44907      5.55396     11.82143        -0.000410     -0.000342     -0.000013
      5.77768      0.95742      6.52688        -0.000410     -0.000342     -0.000013
      5.74302      1.00895     11.75494        -0.000410     -0.000342     -0.000013
      7.10852      5.52724      8.69079        -0.000410     -0.000342     -0.000013
      7.07385      5.57877     13.91885        -0.000410     -0.000342     -0.000013
      1.82422      3.15396      2.92299         0.000164      0.000324      0.000008
      1.78956      3.20549      8.15105         0.000164      0.000324      0.000008
      3.15506      7.72379      5.08690         0.000164      0.000324      0.000008
      3.12040      7.77532     10.31496         0.000164      0.000324      0.000008
      6.44900      3.17878      5.02041         0.000164      0.000324      0.000008
      6.41434      3.23031     10.24847         0.000164      0.000324      0.000008
      7.77984      7.74860      7.18432         0.000164      0.000324      0.000008
      7.74518      7.80013     12.41238         0.000164      0.000324      0.000008
      5.87375      4.61259      7.75582         0.000510     -0.000165     -0.000577
      5.83909      4.66412     12.98389         0.000510     -0.000165     -0.000577
      7.20459      9.18241      9.91973         0.000510     -0.000165     -0.000577
      7.16993      9.23394     15.14780         0.000510     -0.000165     -0.000577
     10.49853      4.63740      9.85324         0.000510     -0.000165     -0.000577
     10.46387      4.68893     15.08131         0.000510     -0.000165     -0.000577
     11.82937      9.20723     12.01715         0.000510     -0.000165     -0.000577
     11.79471      9.25876     17.24521         0.000510     -0.000165     -0.000577
      5.43431      3.15849      8.74194         0.000393     -0.000169     -0.000399
      5.39965      3.21002     13.97000         0.000393     -0.000169     -0.000399
      6.76515      7.72832     10.90585         0.000393     -0.000169     -0.000399
      6.73048      7.77985     16.13391         0.000393     -0.000169     -0.000399
[...]
      3.57821      2.92808     11.07956         0.000183      0.000184      0.000064
      4.94371      7.44637      8.01541         0.000183      0.000184      0.000064
      4.90905      7.49790     13.24347         0.000183      0.000184      0.000064
      8.23766      2.90136      7.94892         0.000183      0.000184      0.000064
      8.20299      2.95289     13.17698         0.000183      0.000184      0.000064
      9.56849      7.47119     10.11283         0.000183      0.000184      0.000064
      9.53383      7.52272     15.34089         0.000183      0.000184      0.000064
      2.26622      1.74007      3.57566        -0.000494      0.000091      0.000067
      2.23156      1.79160      8.80373        -0.000494      0.000091      0.000067
      3.59706      6.30989      5.73957        -0.000494      0.000091      0.000067
      3.56239      6.36142     10.96764        -0.000494      0.000091      0.000067
      6.89100      1.76488      5.67308        -0.000494      0.000091      0.000067
      6.85634      1.81641     10.90114        -0.000494      0.000091      0.000067
      8.22184      6.33470      7.83699        -0.000494      0.000091      0.000067
      8.18717      6.38623     13.06505        -0.000494      0.000091      0.000067
    total drift:                               -0.055013      0.006874     -0.012363

  FREE ENERGIE OF THE ION-ELECTRON SYSTEM (eV)
  free  energy   TOTEN  =      -877.30819195 eV

  energy  without entropy=     -877.30819195  energy(sigma->0) =     -877.30819195

 d Force = 0.4089714E-06[ 0.185E-06, 0.633E-06]  d Energy = 0.6455957E-06-0.237E-06
 d Force = 0.6043494E-02[ 0.604E-02, 0.604E-02]  d Ewald  = 0.5779911E-02 0.264E-03

 reached required accuracy - stopping structural energy minimisation
 BZINTS: Fermi energy:    7.884524;  384.000000 electrons
         Band energy:-0.404989E+03;  BLOECHL correction:    0.000000